 vasp.6.3.1 04May22 (build Aug 04 2022 13:02:54) complex

 executed on             LinuxIFC date 2024.11.25  05:12:02

 INCAR:
   ISTART = 1            (Read existing wavefunction
   ISPIN = 1            (Non-Spin polarised DFT)
   LREAL = .FALSE.       (Projection operators: automatic)
   ENCUT = 520        (Cut-off energy for plane wave basis set, in eV)
   PREC = A       (Precision level)
   LWAVE = .FALSE.        (Write WAVECAR or not)
   LCHARG = .FALSE.        (Write CHGCAR or not)
   ADDGRID = .TRUE.        (Increase grid
   KSPACING = 0.2000
   KGAMMA = .FALSE.
   IVDW = 12
   ISMEAR = 0            (Gaussian smearing
   SIGMA = 0.05         (Smearing value in eV
   NELM = 200           (Max electronic SCF steps)
   NELMIN = 6            (Min electronic SCF steps)
   EDIFF = 1E-08        (SCF energy convergence
   NSW = 0          (Max ionic steps)
   IBRION = -1            (Algorithm: 0-MD
   ISIF = 3           (Stress/relaxation: 2-Ions, 3-Shape/Ions/V, 4-Shape/Ions)
   EDIFFG = -1E-04        (Ionic convergence
   NCORE = 14

 POTCAR:    PAW_PBE C 08Apr2002
|           W    W    AA    RRRRR   N    N  II  N    N   GGGG   !!!           |
|           W    W   A  A   R    R  NN   N  II  NN   N  G    G  !!!           |
|           W    W  A    A  R    R  N N  N  II  N N  N  G       !!!           |
|           W WW W  AAAAAA  RRRRR   N  N N  II  N  N N  G  GGG   !            |
|           WW  WW  A    A  R   R   N   NN  II  N   NN  G    G                |
|           W    W  A    A  R    R  N    N  II  N    N   GGGG   !!!           |
|     For optimal performance we recommend to set                             |
|       NCORE = 2 up to number-of-cores-per-socket                            |
|     This setting can greatly improve the performance of VASP for DFT.       |
|     The default, NCORE=1 might be grossly inefficient on modern             |
|     multi-core architectures or massively parallel machines. Do your        |
|     Unfortunately you need to use the default for GW and RPA                |
|     calculations (for HF NCORE is supported but not extensively tested      |
|     yet).                                                                   |

 POTCAR:    PAW_PBE C 08Apr2002
   VRHFIN =C: s2p2

   TITEL  = PAW_PBE C 08Apr2002
   POMASS =   12.011; ZVAL   =    4.000    mass and valenz
   ENMAX  =  400.000; ENMIN  =  300.000 eV

  PAW_PBE C 08Apr2002                   :

 POSCAR: AB-stacked Graphene
  positions in direct lattice
  velocities in cartesian coordinates
 exchange correlation table for  LEXCH =        8
   RHO(1)=    0.500       N(1)  =     2000
   RHO(2)=  100.500       N(2)  =     4000

 ion  position               nearest neighbor table
   1  0.118  0.998  1.000-   2 1.42   2 1.42   2 1.42
   2  0.784  0.332  0.000-   1 1.42   1 1.42   1 1.42
   3  0.465  0.668  0.500-   4 1.42   4 1.42   4 1.42
   4  0.132  0.002  0.500-   3 1.42   3 1.42   3 1.42

  Warning from LATTYP: Monoclinic adjustment (A1->A3, A2->A1, A3->A2)!
  LATTYP: Found a base centered orthorhombic cell.
 ALAT       =     2.4664926102
 B/A-ratio  =     1.7321284541
 C/A-ratio  =     9.7304163413

  Lattice vectors:

 A1 = (   1.2335791197,   2.1359430323,  -0.0000000552)
 A2 = (  -2.4665805555,   0.0002435830,   0.0000000494)
 A3 = (  -0.0000000441,  -0.0000001059,  24.0000000000)

Analysis of symmetry for initial positions (statically):
 Subroutine PRICEL returns:
 Original cell was already a primitive cell.

 Routine SETGRP: Setting up the symmetry group for a
 base centered orthorhombic supercell.

 Subroutine GETGRP returns: Found  4 space group operations
 (whereof  2 operations were pure point group operations)
 out of a pool of  8 trial point group operations.

The static configuration has the point symmetry C_1h.
 The point group associated with its full space group is C_2h.

Analysis of symmetry for dynamics (positions and initial velocities):
 Subroutine PRICEL returns:
 Original cell was already a primitive cell.

 Routine SETGRP: Setting up the symmetry group for a
 base centered orthorhombic supercell.

 Subroutine GETGRP returns: Found  4 space group operations
 (whereof  2 operations were pure point group operations)
 out of a pool of  8 trial point group operations.

The dynamic configuration has the point symmetry C_1h.
 The point group associated with its full space group is C_2h.

 Subroutine INISYM returns: Found  4 space group operations
 (whereof  2 operations are pure point group operations),
 and found     1 'primitive' translations

                                     Primitive cell

  volume of cell :     126.4506

  direct lattice vectors                    reciprocal lattice vectors
     2.466580556 -0.000243583 -0.000000049     0.405442669  0.234020469  0.000000002
    -1.233001436  2.136186615 -0.000000006     0.000046231  0.468150580  0.000000002
    -0.000000044 -0.000000106 24.000000000     0.000000001  0.000000001  0.041666667

  length of vectors
     2.466580568  2.466492610 24.000000000     0.468133888  0.468150582  0.041666667

  position of ions in fractional coordinates (direct lattice)
     0.117794189  0.998254412  0.999999659
     0.784453271  0.331580559  0.000000223
     0.465038818  0.668419402  0.499999796
     0.131697875  0.001745627  0.500000322

  ion indices of the primitive-cell ions
   primitive index   ion index
                 1           1
                 2           2
                 3           3
                 4           4

 KPOINTS: K-Spacing Value to Generate K-Mesh: 0.03

Automatic generation of k-mesh.
 Grid dimensions read from file:
 generate k-points for:   18   18    1

 Generating k-lattice:

  Cartesian coordinates                     Fractional coordinates (reciprocal lattice)
     0.022524593  0.013001137  0.000000000     0.055555556  0.000000000 -0.000000000
     0.000002568  0.026008366  0.000000000    -0.000000000  0.055555556  0.000000000
     0.000000001  0.000000001  0.041666667    -0.000000000 -0.000000000  1.000000000

  Length of vectors
     0.026007438  0.026008366  0.041666667

  Shift w.r.t. Gamma in fractional coordinates (k-lattice)
     0.000000000  0.000000000  0.000000000

 Subroutine IBZKPT returns following result:

 Found    164 irreducible k-points:

 Following reciprocal coordinates:
            Coordinates               Weight
  0.000000  0.000000  0.000000      1.000000
  0.055556  0.000000  0.000000      2.000000
  0.111111  0.000000 -0.000000      2.000000
  0.166667  0.000000 -0.000000      2.000000
  0.222222  0.000000  0.000000      2.000000
  0.277778 -0.000000  0.000000      2.000000
  0.333333 -0.000000 -0.000000      2.000000
  0.388889 -0.000000 -0.000000      2.000000
  0.444444  0.000000  0.000000      2.000000
  0.500000 -0.000000  0.000000      1.000000
  0.000000  0.055556 -0.000000      2.000000
 -0.055556  0.055556 -0.000000      2.000000
  0.055556  0.055556  0.000000      2.000000
 -0.111111  0.055556 -0.000000      2.000000
  0.111111  0.055556  0.000000      2.000000
 -0.166667  0.055556 -0.000000      2.000000
  0.166667  0.055556 -0.000000      2.000000
 -0.222222  0.055556 -0.000000      2.000000
  0.222222  0.055556  0.000000      2.000000
 -0.277778  0.055556 -0.000000      2.000000
  0.277778  0.055556  0.000000      2.000000
 -0.333333  0.055556 -0.000000      2.000000
  0.333333  0.055556 -0.000000      2.000000
 -0.388889  0.055556  0.000000      2.000000
  0.388889  0.055556 -0.000000      2.000000
 -0.444444  0.055556 -0.000000      2.000000
  0.444444  0.055556  0.000000      2.000000
  0.500000  0.055556 -0.000000      2.000000
  0.000000  0.111111 -0.000000      2.000000
 -0.111111  0.111111  0.000000      2.000000
  0.055556  0.111111  0.000000      2.000000
 -0.166667  0.111111  0.000000      2.000000
  0.111111  0.111111  0.000000      2.000000
 -0.222222  0.111111 -0.000000      2.000000
  0.166667  0.111111 -0.000000      2.000000
 -0.277778  0.111111  0.000000      2.000000
  0.222222  0.111111 -0.000000      2.000000
 -0.333333  0.111111  0.000000      2.000000
  0.277778  0.111111  0.000000      2.000000
 -0.388889  0.111111 -0.000000      2.000000
  0.333333  0.111111 -0.000000      2.000000
 -0.444444  0.111111  0.000000      2.000000
  0.388889  0.111111 -0.000000      2.000000
  0.500000  0.111111  0.000000      2.000000
  0.444444  0.111111  0.000000      2.000000
 -0.055556  0.111111 -0.000000      2.000000
  0.000000  0.166667 -0.000000      2.000000
 -0.166667  0.166667 -0.000000      2.000000
  0.055556  0.166667  0.000000      2.000000
 -0.222222  0.166667 -0.000000      2.000000
  0.111111  0.166667  0.000000      2.000000
 -0.277778  0.166667 -0.000000      2.000000
  0.166667  0.166667 -0.000000      2.000000
 -0.333333  0.166667  0.000000      2.000000
  0.222222  0.166667 -0.000000      2.000000
 -0.388889  0.166667 -0.000000      2.000000
  0.277778  0.166667  0.000000      2.000000
 -0.444444  0.166667 -0.000000      2.000000
  0.333333  0.166667  0.000000      2.000000
  0.500000  0.166667 -0.000000      2.000000
[...]
 -0.333333  0.444444 -0.000000      2.000000
 -0.111111  0.444444 -0.000000      2.000000
 -0.277778  0.444444  0.000000      2.000000
 -0.166667  0.444444 -0.000000      2.000000
 -0.222222  0.444444  0.000000      2.000000
  0.000000  0.500000  0.000000      1.000000
  0.500000  0.500000 -0.000000      1.000000
  0.055556  0.500000 -0.000000      2.000000
  0.444444  0.500000  0.000000      2.000000
  0.111111  0.500000 -0.000000      2.000000
  0.388889  0.500000  0.000000      2.000000
  0.166667  0.500000  0.000000      2.000000
  0.333333  0.500000  0.000000      2.000000
  0.222222  0.500000  0.000000      2.000000
  0.277778  0.500000 -0.000000      2.000000

 Following cartesian coordinates:
            Coordinates               Weight
  0.000000  0.000000  0.000000      1.000000
  0.022525  0.013001  0.000000      2.000000
  0.045049  0.026002  0.000000      2.000000
  0.067574  0.039003  0.000000      2.000000
  0.090098  0.052005  0.000000      2.000000
  0.112623  0.065006  0.000000      2.000000
  0.135148  0.078007  0.000000      2.000000
  0.157672  0.091008  0.000000      2.000000
  0.180197  0.104009  0.000000      2.000000
  0.202721  0.117010  0.000000      1.000000
  0.000003  0.026008  0.000000      2.000000
 -0.022522  0.013007  0.000000      2.000000
  0.022527  0.039010  0.000000      2.000000
 -0.045047  0.000006 -0.000000      2.000000
  0.045052  0.052011  0.000000      2.000000
 -0.067571 -0.012995 -0.000000      2.000000
  0.067576  0.065012  0.000000      2.000000
 -0.090096 -0.025996 -0.000000      2.000000
  0.090101  0.078013  0.000000      2.000000
 -0.112620 -0.038997 -0.000000      2.000000
  0.112626  0.091014  0.000000      2.000000
 -0.135145 -0.051998 -0.000000      2.000000
  0.135150  0.104015  0.000000      2.000000
 -0.157670 -0.065000 -0.000000      2.000000
  0.157675  0.117016  0.000000      2.000000
 -0.180194 -0.078001 -0.000000      2.000000
  0.180199  0.130017  0.000000      2.000000
  0.202724  0.143019  0.000000      2.000000
  0.000005  0.052017  0.000000      2.000000
 -0.045044  0.026014  0.000000      2.000000
[...]
  -0.44444444  0.05555556 -0.00000000       0.006
   0.44444444  0.05555556  0.00000000       0.006
   0.50000000  0.05555556 -0.00000000       0.006
   0.00000000  0.11111111 -0.00000000       0.006
  -0.11111111  0.11111111  0.00000000       0.006
   0.05555556  0.11111111  0.00000000       0.006
  -0.16666667  0.11111111  0.00000000       0.006
   0.11111111  0.11111111  0.00000000       0.006
  -0.22222222  0.11111111 -0.00000000       0.006
   0.16666667  0.11111111 -0.00000000       0.006
  -0.27777778  0.11111111  0.00000000       0.006
   0.22222222  0.11111111 -0.00000000       0.006
  -0.33333333  0.11111111  0.00000000       0.006
   0.27777778  0.11111111  0.00000000       0.006
  -0.38888889  0.11111111 -0.00000000       0.006
   0.33333333  0.11111111 -0.00000000       0.006
  -0.44444444  0.11111111  0.00000000       0.006
   0.38888889  0.11111111 -0.00000000       0.006
   0.50000000  0.11111111  0.00000000       0.006
   0.44444444  0.11111111  0.00000000       0.006
  -0.05555556  0.11111111 -0.00000000       0.006
   0.00000000  0.16666667 -0.00000000       0.006
  -0.16666667  0.16666667 -0.00000000       0.006
   0.05555556  0.16666667  0.00000000       0.006
  -0.22222222  0.16666667 -0.00000000       0.006
   0.11111111  0.16666667  0.00000000       0.006
  -0.27777778  0.16666667 -0.00000000       0.006
   0.16666667  0.16666667 -0.00000000       0.006
  -0.33333333  0.16666667  0.00000000       0.006
   0.22222222  0.16666667 -0.00000000       0.006
  -0.38888889  0.16666667 -0.00000000       0.006
   0.27777778  0.16666667  0.00000000       0.006
  -0.44444444  0.16666667 -0.00000000       0.006
   0.33333333  0.16666667  0.00000000       0.006
   0.50000000  0.16666667 -0.00000000       0.006
[...]
  -0.33333333  0.44444444 -0.00000000       0.006
  -0.11111111  0.44444444 -0.00000000       0.006
  -0.27777778  0.44444444  0.00000000       0.006
  -0.16666667  0.44444444 -0.00000000       0.006
  -0.22222222  0.44444444  0.00000000       0.006
   0.00000000  0.50000000  0.00000000       0.003
   0.50000000  0.50000000 -0.00000000       0.003
   0.05555556  0.50000000 -0.00000000       0.006
   0.44444444  0.50000000  0.00000000       0.006
   0.11111111  0.50000000 -0.00000000       0.006
   0.38888889  0.50000000  0.00000000       0.006
   0.16666667  0.50000000  0.00000000       0.006
   0.33333333  0.50000000  0.00000000       0.006
   0.22222222  0.50000000  0.00000000       0.006
   0.27777778  0.50000000 -0.00000000       0.006

 position of ions in fractional coordinates (direct lattice)
   0.11779419  0.99825441  0.99999966
   0.78445327  0.33158056  0.00000022
   0.46503882  0.66841940  0.49999980
   0.13169788  0.00174563  0.50000032

 position of ions in cartesian coordinates  (Angst):
  -0.94030031  2.13242891 23.99999179
   1.52607788  0.70812687  0.00000532
   0.32289360  1.42775525 11.99999507
   0.32269103  0.00369685 12.00000773

 k-point   1 :   0.0000 0.0000 0.0000  plane waves:    3419
 k-point   2 :   0.0556 0.0000 0.0000  plane waves:    3416
 k-point   3 :   0.1111 0.0000-0.0000  plane waves:    3448
 k-point   4 :   0.1667 0.0000-0.0000  plane waves:    3448
 k-point   5 :   0.2222 0.0000 0.0000  plane waves:    3454
 k-point   6 :   0.2778-0.0000 0.0000  plane waves:    3444
 k-point   7 :   0.3333-0.0000-0.0000  plane waves:    3428
 k-point   8 :   0.3889-0.0000-0.0000  plane waves:    3392
 k-point   9 :   0.4444 0.0000 0.0000  plane waves:    3390
 k-point  10 :   0.5000-0.0000 0.0000  plane waves:    3388
 k-point  11 :   0.0000 0.0556-0.0000  plane waves:    3416
 k-point  12 :  -0.0556 0.0556-0.0000  plane waves:    3416
 k-point  13 :   0.0556 0.0556 0.0000  plane waves:    3435
 k-point  14 :  -0.1111 0.0556-0.0000  plane waves:    3435
 k-point  15 :   0.1111 0.0556 0.0000  plane waves:    3433
 k-point  16 :  -0.1667 0.0556-0.0000  plane waves:    3433
 k-point  17 :   0.1667 0.0556-0.0000  plane waves:    3442
 k-point  18 :  -0.2222 0.0556-0.0000  plane waves:    3442
 k-point  19 :   0.2222 0.0556 0.0000  plane waves:    3442
 k-point  20 :  -0.2778 0.0556-0.0000  plane waves:    3442
 k-point  21 :   0.2778 0.0556 0.0000  plane waves:    3430
 k-point  22 :  -0.3333 0.0556-0.0000  plane waves:    3430
 k-point  23 :   0.3333 0.0556-0.0000  plane waves:    3402
 k-point  24 :  -0.3889 0.0556 0.0000  plane waves:    3400
 k-point  25 :   0.3889 0.0556-0.0000  plane waves:    3379
 k-point  26 :  -0.4444 0.0556-0.0000  plane waves:    3379
 k-point  27 :   0.4444 0.0556 0.0000  plane waves:    3390
 k-point  28 :   0.5000 0.0556-0.0000  plane waves:    3390
 k-point  29 :   0.0000 0.1111-0.0000  plane waves:    3448
 k-point  30 :  -0.1111 0.1111 0.0000  plane waves:    3448
 k-point  31 :   0.0556 0.1111 0.0000  plane waves:    3435
 k-point  32 :  -0.1667 0.1111 0.0000  plane waves:    3435
 k-point  33 :   0.1111 0.1111 0.0000  plane waves:    3437
 k-point  34 :  -0.2222 0.1111-0.0000  plane waves:    3437
 k-point  35 :   0.1667 0.1111-0.0000  plane waves:    3429
 k-point  36 :  -0.2778 0.1111 0.0000  plane waves:    3429
 k-point  37 :   0.2222 0.1111-0.0000  plane waves:    3428
 k-point  38 :  -0.3333 0.1111 0.0000  plane waves:    3428
 k-point  39 :   0.2778 0.1111 0.0000  plane waves:    3410
 k-point  40 :  -0.3889 0.1111-0.0000  plane waves:    3410
 k-point  41 :   0.3333 0.1111-0.0000  plane waves:    3392
 k-point  42 :  -0.4444 0.1111 0.0000  plane waves:    3392
 k-point  43 :   0.3889 0.1111-0.0000  plane waves:    3387
 k-point  44 :   0.5000 0.1111 0.0000  plane waves:    3387
 k-point  45 :   0.4444 0.1111 0.0000  plane waves:    3390
 k-point  46 :  -0.0556 0.1111-0.0000  plane waves:    3435
 k-point  47 :   0.0000 0.1667-0.0000  plane waves:    3448
 k-point  48 :  -0.1667 0.1667-0.0000  plane waves:    3448
 k-point  49 :   0.0556 0.1667 0.0000  plane waves:    3442
 k-point  50 :  -0.2222 0.1667-0.0000  plane waves:    3442
 k-point  51 :   0.1111 0.1667 0.0000  plane waves:    3429
 k-point  52 :  -0.2778 0.1667-0.0000  plane waves:    3429
 k-point  53 :   0.1667 0.1667-0.0000  plane waves:    3435
 k-point  54 :  -0.3333 0.1667 0.0000  plane waves:    3435
 k-point  55 :   0.2222 0.1667-0.0000  plane waves:    3405
 k-point  56 :  -0.3889 0.1667-0.0000  plane waves:    3405
 k-point  57 :   0.2778 0.1667 0.0000  plane waves:    3380
 k-point  58 :  -0.4444 0.1667-0.0000  plane waves:    3380
 k-point  59 :   0.3333 0.1667 0.0000  plane waves:    3385
 k-point  60 :   0.5000 0.1667-0.0000  plane waves:    3385
[...]
 k-point 150 :  -0.3333 0.4444-0.0000  plane waves:    3392
 k-point 151 :  -0.1111 0.4444-0.0000  plane waves:    3392
 k-point 152 :  -0.2778 0.4444 0.0000  plane waves:    3380
 k-point 153 :  -0.1667 0.4444-0.0000  plane waves:    3380
 k-point 154 :  -0.2222 0.4444 0.0000  plane waves:    3365
 k-point 155 :   0.0000 0.5000 0.0000  plane waves:    3388
 k-point 156 :   0.5000 0.5000-0.0000  plane waves:    3388
 k-point 157 :   0.0556 0.5000-0.0000  plane waves:    3390
 k-point 158 :   0.4444 0.5000 0.0000  plane waves:    3390
 k-point 159 :   0.1111 0.5000-0.0000  plane waves:    3387
 k-point 160 :   0.3889 0.5000 0.0000  plane waves:    3387
 k-point 161 :   0.1667 0.5000 0.0000  plane waves:    3385
 k-point 162 :   0.3333 0.5000 0.0000  plane waves:    3385
 k-point 163 :   0.2222 0.5000 0.0000  plane waves:    3379
 k-point 164 :   0.2778 0.5000-0.0000  plane waves:    3379

 maximum and minimum number of plane-waves per node :       264      226

 maximum number of plane-waves:      3454
 maximum index in each direction:
   IXMAX=    5   IYMAX=    4   IZMAX=   44
   IXMIN=   -5   IYMIN=   -5   IZMIN=  -44

 parallel 3D FFT for wavefunctions:
    minimum data exchange during FFTs selected (reduces bandwidth)
 parallel 3D FFT for charge:
    minimum data exchange during FFTs selected (reduces bandwidth)

 Broyden mixing: mesh for mixing (old mesh)
   NGX =  9   NGY =  9   NGZ = 89
  (NGX  = 36   NGY  = 36   NGZ  =360)
  gives a total of   7209 points

 initial charge density was supplied:
 charge density of overlapping atoms calculated
 number of electron      16.0000000 magnetization
 keeping initial charge density in first step

 Maximum index for augmentation-charges         2095 (set IRDMAX)

 First call to EWALD:  gamma=   0.353
 Maximum number of real-space cells 6x 6x 1
 Maximum number of reciprocal cells 2x 2x11

--------------------------------------- Iteration      1(   1)  ---------------------------------------

 eigenvalue-minimisations  :  4024
 total energy-change (2. order) : 0.1013412E+03  (-0.6110432E+03)
 number of electron      16.0000000 magnetization
 augmentation part       16.0000000 magnetization

 Free energy of the ion-electron system (eV)
  alpha Z        PSCENC =        10.39415550
  Ewald energy   TEWEN  =      1122.79083903
  -Hartree energ DENC   =     -1572.91089876
  -exchange      EXHF   =         0.00000000
  -V(xc)+E(xc)   XCENC  =        52.71361723
  PAW double counting   =       434.08818552     -436.36580876
  entropy T*S    EENTRO =        -0.00164703
  eigenvalues    EBANDS =       -97.96279659
  atomic energy  EATOM  =       588.59557325
  Solvation  Ediel_sol  =         0.00000000
  free energy    TOTEN  =       101.34121939 eV

  energy without entropy =      101.34286642  energy(sigma->0) =      101.34204291

[...]

 eigenvalue-minimisations  :  6264
 total energy-change (2. order) :-0.1284997E+03  (-0.1150117E+03)
 number of electron      16.0000000 magnetization
 augmentation part       16.0000000 magnetization

[...]

 Broyden mixing:
  rms(total) = 0.89154E+00    rms(broyden)= 0.89143E+00
  rms(prec ) = 0.93493E+00
  weight for this iteration     100.00

[...]

 eigenvalues of (default mixing * dielectric matrix)
  average eigenvalue GAMMA=   2.2102
  2.2102

[...]

 eigenvalue-minimisations  :  4572
 total energy-change (2. order) : 0.7066936E-02  (-0.5865251E-03)
 number of electron      16.0000000 magnetization
 augmentation part        0.3842625 magnetization

[...]

 Broyden mixing:
  rms(total) = 0.19428E-04    rms(broyden)= 0.19411E-04
  rms(prec ) = 0.19525E-04
  weight for this iteration     100.00

[...]

 Broyden mixing:
  rms(total) = 0.17702E-05    rms(broyden)= 0.15905E-05
  rms(prec ) = 0.17012E-05
  weight for this iteration     100.00
  WARNING: grid for Broyden might be to small

[...]

 Broyden mixing:
  rms(total) = 0.13516E-05    rms(broyden)= 0.11060E-05
  rms(prec ) = 0.11190E-05
  weight for this iteration     100.00
  WARNING: grid for Broyden might be to small

 eigenvalues of (default mixing * dielectric matrix)
  average eigenvalue GAMMA=   2.5518
  9.4483  4.7334  3.1189  2.8847  2.5070  2.4105  2.4105  2.0600  0.9700  0.9793
  0.9793  1.0348  1.0941  1.0941

[...]

--------------------------------------- Iteration      1(  20)  ---------------------------------------

 eigenvalue-minimisations  :  3040
 total energy-change (2. order) :-0.2205525E-08  (-0.1300651E-10)
 number of electron      16.0000000 magnetization
 augmentation part        0.3838630 magnetization

 Free energy of the ion-electron system (eV)
  alpha Z        PSCENC =        10.39415550
  Ewald energy   TEWEN  =      1122.79083903
  -Hartree energ DENC   =     -1636.88955411
  -exchange      EXHF   =         0.00000000
  -V(xc)+E(xc)   XCENC  =        55.07910822
  PAW double counting   =      1668.05013304    -1670.78558750
  entropy T*S    EENTRO =        -0.00069652
  eigenvalues    EBANDS =      -174.12804988
  atomic energy  EATOM  =       588.59557325
  Solvation  Ediel_sol  =         0.00000000
  free energy    TOTEN  =       -36.89407897 eV

  energy without entropy =      -36.89338245  energy(sigma->0) =      -36.89373071

 average (electrostatic) potential at core
  the test charge radii are     0.6991
  (the norm of the test charge is              1.0000)
       1 -57.1862       2 -57.1863       3 -57.1862       4 -57.1863

 E-fermi :  -1.7509     XC(G=0):  -3.5686     alpha+bet : -3.1704

 Fermi energy:        -1.7508950026

 k-point     1 :       0.0000    0.0000    0.0000
  band No.  band energies     occupation
      1     -21.2579      2.00000
      2     -21.2579      2.00000
      3      -9.3611      2.00000
      4      -9.3611      2.00000
      5      -4.7797      2.00000
      6      -4.7797      2.00000
      7      -4.7789      2.00000
      8      -4.7789      2.00000
      9       1.4654      0.00000
     10       1.5897      0.00000
     11       2.1720      0.00000
     12       2.6061      0.00000

[...]

 k-point   164 :       0.2778    0.5000   -0.0000
  band No.  band energies     occupation
      1     -16.9583      2.00000
      2     -16.9583      2.00000
      3     -12.4160      2.00000
      4     -12.4160      2.00000
      5     -10.5408      2.00000
      6     -10.5408      2.00000
      7      -4.4760      2.00000
      8      -4.4760      2.00000
      9       1.0249      0.00000
     10       1.0249      0.00000
     11       7.4648      0.00000
     12       7.5518      0.00000

 soft charge-density along one line, spin component           1
         0         1         2         3         4         5         6         7         8         9
 total charge-density along one line

------------------------ aborting loop because EDIFF is reached ----------------------------------------

         DFTD3 V3.0 Rev 1
 IVDW         = 12
 DF pbe
 parameters
 VDW_S6       =    1.0000
 VDW_S8       =    0.7875
 VDW_A1       =    0.4289
 VDW_A2       =    4.4407
 k1-k3        =   16.0000    1.3333   -4.0000
 VDW_RADIUS   =   50.2022 A
 VDW_CNRADIUS =   21.1671 A
 Edisp (eV)   -0.35593

 E6    (eV) :    -0.2450
 E8    (eV) :    -0.1109
 % E8        : 31.16

  FORCE on cell =-STRESS in cart. coord.  units (eV):
  Direction    XX          YY          ZZ          XY          YZ          ZX
  Alpha Z    10.39416    10.39416    10.39416
  Ewald    1660.42000  1660.41373 -2198.04300    -0.00055    -0.00006    -0.00008
  Hartree  1614.23845  1614.23824 -1591.58712    -0.00055    -0.00005    -0.00006
  E(xc)     -59.40956   -59.40962   -61.63627     0.00002    -0.00000    -0.00000
  Local   -3449.71829 -3449.71319  3580.52967     0.00114     0.00010     0.00014
  n-local   -14.25409   -14.25495   -13.00099     0.00055    -0.00000     0.00000
  augment    -1.55722    -1.55715    -1.43553     0.00001    -0.00000    -0.00000
  Kinetic   240.06550   240.07192   274.75806    -0.00351     0.00000     0.00000
  Fock        0.00000     0.00000     0.00000     0.00000     0.00000     0.00000
  vdW        -0.08784    -0.08780    -0.00733    -0.00003     0.00000     0.00000
  Total       0.09110     0.09535    -0.02835    -0.00291    -0.00000    -0.00000
  in kB       1.15426     1.20807    -0.35921    -0.03687    -0.00000    -0.00000

 VOLUME and BASIS-vectors are now :
  energy-cutoff  :      520.00
  volume of cell :      126.45
      direct lattice vectors                 reciprocal lattice vectors
     2.466580556 -0.000243583 -0.000000049     0.405442669  0.234020469  0.000000002
    -1.233001436  2.136186615 -0.000000006     0.000046231  0.468150580  0.000000002
    -0.000000044 -0.000000106 24.000000000     0.000000001  0.000000001  0.041666667

  length of vectors
     2.466580568  2.466492610 24.000000000     0.468133888  0.468150582  0.041666667

 FORCES acting on ions
    electron-ion (+dipol)            ewald-force                    non-local-force                 convergence-correction
   -.657E-02 -.267E-02 0.339E-02   0.625E-02 0.308E-02 -.407E-02   -.144E-03 -.228E-03 0.614E-11   0.672E-06 0.397E-06 0.126E-05
   0.638E-02 0.434E-02 -.770E-02   -.625E-02 -.308E-02 0.433E-02   0.141E-03 0.231E-03 -.611E-11   -.108E-05 -.472E-06 0.126E-05
   -.659E-02 -.264E-02 0.742E-03   0.622E-02 0.311E-02 -.404E-02   -.141E-03 -.231E-03 0.611E-11   0.108E-05 0.472E-06 0.169E-05
   0.639E-02 0.431E-02 -.959E-02   -.622E-02 -.311E-02 0.378E-02   0.144E-03 0.228E-03 -.614E-11   -.672E-06 -.397E-06 0.169E-05
   -.389E-03 0.334E-02 -.132E-01   -.418E-14 -.663E-14 0.000E+00   0.542E-19 -.271E-19 -.237E-19   -.154E-10 -.740E-10 0.590E-05

 POSITION                                       TOTAL-FORCE (eV/Angst)
     -0.94030      2.13243     23.99999        -0.000396     -0.000627      0.000000
      1.52608      0.70813      0.00001         0.000393      0.000630     -0.000000
      0.32289      1.42776     12.00000        -0.000393     -0.000630      0.000000
      0.32269      0.00370     12.00001         0.000396      0.000627     -0.000000
    total drift:                               -0.000389      0.003341     -0.013152

  FREE ENERGIE OF THE ION-ELECTRON SYSTEM (eV)
  free  energy   TOTEN  =       -37.25000837 eV

  energy  without entropy=      -37.24931185  energy(sigma->0) =      -37.24966011