 vasp.6.3.1 04May22 (build Aug 04 2022 13:02:54) complex

 executed on             LinuxIFC date 2024.11.25  05:41:58

 INCAR:
   ISTART = 1            (Read existing wavefunction
   ISPIN = 1            (Non-Spin polarised DFT)
   LREAL = .FALSE.       (Projection operators: automatic)
   ENCUT = 520        (Cut-off energy for plane wave basis set, in eV)
   PREC = A       (Precision level)
   LWAVE = .FALSE.        (Write WAVECAR or not)
   LCHARG = .FALSE.        (Write CHGCAR or not)
   ADDGRID = .TRUE.        (Increase grid
   KSPACING = 0.2000
   KGAMMA = .FALSE.
   IVDW = 12
   ISMEAR = 0            (Gaussian smearing
   SIGMA = 0.05         (Smearing value in eV
   NELM = 200           (Max electronic SCF steps)
   NELMIN = 6            (Min electronic SCF steps)
   EDIFF = 1E-08        (SCF energy convergence
   NSW = 0          (Max ionic steps)
   IBRION = -1            (Algorithm: 0-MD
   ISIF = 3           (Stress/relaxation: 2-Ions, 3-Shape/Ions/V, 4-Shape/Ions)
   EDIFFG = -1E-04        (Ionic convergence
   NCORE = 14

 POTCAR:    PAW_PBE C 08Apr2002
|           W    W    AA    RRRRR   N    N  II  N    N   GGGG   !!!           |
|           W    W   A  A   R    R  NN   N  II  NN   N  G    G  !!!           |
|           W    W  A    A  R    R  N N  N  II  N N  N  G       !!!           |
|           W WW W  AAAAAA  RRRRR   N  N N  II  N  N N  G  GGG   !            |
|           WW  WW  A    A  R   R   N   NN  II  N   NN  G    G                |
|           W    W  A    A  R    R  N    N  II  N    N   GGGG   !!!           |
|     For optimal performance we recommend to set                             |
|       NCORE = 2 up to number-of-cores-per-socket                            |
|     This setting can greatly improve the performance of VASP for DFT.       |
|     The default, NCORE=1 might be grossly inefficient on modern             |
|     multi-core architectures or massively parallel machines. Do your        |
|     Unfortunately you need to use the default for GW and RPA                |
|     calculations (for HF NCORE is supported but not extensively tested      |
|     yet).                                                                   |

 POTCAR:    PAW_PBE C 08Apr2002
   VRHFIN =C: s2p2

   TITEL  = PAW_PBE C 08Apr2002
   POMASS =   12.011; ZVAL   =    4.000    mass and valenz
   ENMAX  =  400.000; ENMIN  =  300.000 eV

  PAW_PBE C 08Apr2002                   :

 POSCAR: AB-stacked Graphene
  positions in direct lattice
  velocities in cartesian coordinates
 exchange correlation table for  LEXCH =        8
   RHO(1)=    0.500       N(1)  =     2000
   RHO(2)=  100.500       N(2)  =     4000

 ion  position               nearest neighbor table
   1  0.118  0.998  1.000-   2 1.42   2 1.42   2 1.42
   2  0.784  0.332  0.000-   1 1.42   1 1.42   1 1.42
   3  0.465  0.668  0.500-   4 1.42   4 1.42   4 1.42
   4  0.132  0.002  0.500-   3 1.42   3 1.42   3 1.42

  Warning from LATTYP: Monoclinic adjustment (A1->A3, A2->A1, A3->A2)!
  LATTYP: Found a base centered orthorhombic cell.
 ALAT       =     2.4664926102
 B/A-ratio  =     1.7321284541
 C/A-ratio  =     3.5678193251

  Lattice vectors:

 A1 = (   1.2335791197,   2.1359430323,  -0.0000000552)
 A2 = (  -2.4665805555,   0.0002435830,   0.0000000494)
 A3 = (  -0.0000000441,  -0.0000001059,   8.8000000000)

Analysis of symmetry for initial positions (statically):
 Subroutine PRICEL returns:
 Original cell was already a primitive cell.

 Routine SETGRP: Setting up the symmetry group for a
 base centered orthorhombic supercell.

 Subroutine GETGRP returns: Found  4 space group operations
 (whereof  2 operations were pure point group operations)
 out of a pool of  8 trial point group operations.

The static configuration has the point symmetry C_1h.
 The point group associated with its full space group is C_2h.

Analysis of symmetry for dynamics (positions and initial velocities):
 Subroutine PRICEL returns:
 Original cell was already a primitive cell.

 Routine SETGRP: Setting up the symmetry group for a
 base centered orthorhombic supercell.

 Subroutine GETGRP returns: Found  4 space group operations
 (whereof  2 operations were pure point group operations)
 out of a pool of  8 trial point group operations.

The dynamic configuration has the point symmetry C_1h.
 The point group associated with its full space group is C_2h.

 Subroutine INISYM returns: Found  4 space group operations
 (whereof  2 operations are pure point group operations),
 and found     1 'primitive' translations

                                     Primitive cell

  volume of cell :      46.3652

  direct lattice vectors                    reciprocal lattice vectors
     2.466580556 -0.000243583 -0.000000049     0.405442669  0.234020469  0.000000005
    -1.233001436  2.136186615 -0.000000006     0.000046231  0.468150580  0.000000006
    -0.000000044 -0.000000106  8.800000000     0.000000002  0.000000002  0.113636364

  length of vectors
     2.466580568  2.466492610  8.800000000     0.468133888  0.468150582  0.113636364

  position of ions in fractional coordinates (direct lattice)
     0.117794189  0.998254412  0.999999659
     0.784453271  0.331580559  0.000000223
     0.465038818  0.668419402  0.499999796
     0.131697875  0.001745627  0.500000322

  ion indices of the primitive-cell ions
   primitive index   ion index
                 1           1
                 2           2
                 3           3
                 4           4

 KPOINTS: K-Spacing Value to Generate K-Mesh: 0.03

Automatic generation of k-mesh.
 Grid dimensions read from file:
 generate k-points for:   18   18    4

 Generating k-lattice:

  Cartesian coordinates                     Fractional coordinates (reciprocal lattice)
     0.022524593  0.013001137  0.000000000     0.055555556 -0.000000000  0.000000000
     0.000002568  0.026008366  0.000000000     0.000000000  0.055555556  0.000000000
     0.000000001  0.000000000  0.028409091     0.000000000 -0.000000000  0.250000000

  Length of vectors
     0.026007438  0.026008366  0.028409091

  Shift w.r.t. Gamma in fractional coordinates (k-lattice)
     0.000000000  0.000000000  0.000000000

 Subroutine IBZKPT returns following result:

 Found    492 irreducible k-points:

 Following reciprocal coordinates:
            Coordinates               Weight
  0.000000  0.000000  0.000000      1.000000
  0.055556 -0.000000  0.000000      2.000000
  0.111111 -0.000000 -0.000000      2.000000
  0.166667 -0.000000 -0.000000      2.000000
  0.222222  0.000000  0.000000      2.000000
  0.277778 -0.000000  0.000000      2.000000
  0.333333 -0.000000 -0.000000      2.000000
  0.388889  0.000000 -0.000000      2.000000
  0.444444  0.000000  0.000000      2.000000
  0.500000  0.000000  0.000000      1.000000
 -0.000000  0.055556 -0.000000      2.000000
 -0.055556  0.055556 -0.000000      2.000000
  0.055556  0.055556  0.000000      2.000000
 -0.111111  0.055556 -0.000000      2.000000
  0.111111  0.055556  0.000000      2.000000
 -0.166667  0.055556 -0.000000      2.000000
  0.166667  0.055556 -0.000000      2.000000
 -0.222222  0.055556 -0.000000      2.000000
  0.222222  0.055556  0.000000      2.000000
 -0.277778  0.055556 -0.000000      2.000000
  0.277778  0.055556  0.000000      2.000000
 -0.333333  0.055556 -0.000000      2.000000
  0.333333  0.055556 -0.000000      2.000000
 -0.388889  0.055556  0.000000      2.000000
  0.388889  0.055556 -0.000000      2.000000
 -0.444444  0.055556 -0.000000      2.000000
  0.444444  0.055556  0.000000      2.000000
  0.500000  0.055556 -0.000000      2.000000
 -0.000000  0.111111 -0.000000      2.000000
 -0.111111  0.111111  0.000000      2.000000
  0.055556  0.111111  0.000000      2.000000
 -0.166667  0.111111  0.000000      2.000000
  0.111111  0.111111  0.000000      2.000000
 -0.222222  0.111111 -0.000000      2.000000
  0.166667  0.111111 -0.000000      2.000000
 -0.277778  0.111111  0.000000      2.000000
  0.222222  0.111111 -0.000000      2.000000
 -0.333333  0.111111  0.000000      2.000000
  0.277778  0.111111  0.000000      2.000000
 -0.388889  0.111111 -0.000000      2.000000
  0.333333  0.111111 -0.000000      2.000000
 -0.444444  0.111111  0.000000      2.000000
  0.388889  0.111111 -0.000000      2.000000
  0.500000  0.111111  0.000000      2.000000
  0.444444  0.111111  0.000000      2.000000
 -0.055556  0.111111 -0.000000      2.000000
 -0.000000  0.166667 -0.000000      2.000000
 -0.166667  0.166667 -0.000000      2.000000
  0.055556  0.166667  0.000000      2.000000
 -0.222222  0.166667 -0.000000      2.000000
  0.111111  0.166667  0.000000      2.000000
 -0.277778  0.166667 -0.000000      2.000000
  0.166667  0.166667 -0.000000      2.000000
 -0.333333  0.166667  0.000000      2.000000
  0.222222  0.166667 -0.000000      2.000000
 -0.388889  0.166667 -0.000000      2.000000
  0.277778  0.166667  0.000000      2.000000
 -0.444444  0.166667 -0.000000      2.000000
  0.333333  0.166667  0.000000      2.000000
  0.500000  0.166667 -0.000000      2.000000
[...]
 -0.333333  0.444444  0.500000      2.000000
 -0.111111  0.444444  0.500000      2.000000
 -0.277778  0.444444  0.500000      2.000000
 -0.166667  0.444444  0.500000      2.000000
 -0.222222  0.444444  0.500000      2.000000
  0.000000  0.500000  0.500000      1.000000
  0.500000  0.500000  0.500000      1.000000
  0.055556  0.500000  0.500000      2.000000
  0.444444  0.500000  0.500000      2.000000
  0.111111  0.500000  0.500000      2.000000
  0.388889  0.500000  0.500000      2.000000
  0.166667  0.500000  0.500000      2.000000
  0.333333  0.500000  0.500000      2.000000
  0.222222  0.500000  0.500000      2.000000
  0.277778  0.500000  0.500000      2.000000

 Following cartesian coordinates:
            Coordinates               Weight
  0.000000  0.000000  0.000000      1.000000
  0.022525  0.013001  0.000000      2.000000
  0.045049  0.026002  0.000000      2.000000
  0.067574  0.039003  0.000000      2.000000
  0.090098  0.052005  0.000000      2.000000
  0.112623  0.065006  0.000000      2.000000
  0.135148  0.078007  0.000000      2.000000
  0.157672  0.091008  0.000000      2.000000
  0.180197  0.104009  0.000000      2.000000
  0.202721  0.117010  0.000000      1.000000
  0.000003  0.026008  0.000000      2.000000
 -0.022522  0.013007  0.000000      2.000000
  0.022527  0.039010  0.000000      2.000000
 -0.045047  0.000006 -0.000000      2.000000
  0.045052  0.052011  0.000000      2.000000
 -0.067571 -0.012995 -0.000000      2.000000
  0.067576  0.065012  0.000000      2.000000
 -0.090096 -0.025996 -0.000000      2.000000
  0.090101  0.078013  0.000000      2.000000
 -0.112620 -0.038997 -0.000000      2.000000
  0.112626  0.091014  0.000000      2.000000
 -0.135145 -0.051998 -0.000000      2.000000
  0.135150  0.104015  0.000000      2.000000
 -0.157670 -0.065000 -0.000000      2.000000
  0.157675  0.117016  0.000000      2.000000
 -0.180194 -0.078001 -0.000000      2.000000
  0.180199  0.130017  0.000000      2.000000
  0.202724  0.143019  0.000000      2.000000
  0.000005  0.052017  0.000000      2.000000
 -0.045044  0.026014  0.000000      2.000000
[...]
  -0.33333333  0.05555556 -0.00000000       0.002
   0.33333333  0.05555556 -0.00000000       0.002
  -0.38888889  0.05555556  0.00000000       0.002
   0.38888889  0.05555556 -0.00000000       0.002
  -0.44444444  0.05555556 -0.00000000       0.002
   0.44444444  0.05555556  0.00000000       0.002
   0.50000000  0.05555556 -0.00000000       0.002
  -0.00000000  0.11111111 -0.00000000       0.002
  -0.11111111  0.11111111  0.00000000       0.002
   0.05555556  0.11111111  0.00000000       0.002
  -0.16666667  0.11111111  0.00000000       0.002
   0.11111111  0.11111111  0.00000000       0.002
  -0.22222222  0.11111111 -0.00000000       0.002
   0.16666667  0.11111111 -0.00000000       0.002
  -0.27777778  0.11111111  0.00000000       0.002
   0.22222222  0.11111111 -0.00000000       0.002
  -0.33333333  0.11111111  0.00000000       0.002
   0.27777778  0.11111111  0.00000000       0.002
  -0.38888889  0.11111111 -0.00000000       0.002
   0.33333333  0.11111111 -0.00000000       0.002
  -0.44444444  0.11111111  0.00000000       0.002
   0.38888889  0.11111111 -0.00000000       0.002
   0.50000000  0.11111111  0.00000000       0.002
   0.44444444  0.11111111  0.00000000       0.002
  -0.05555556  0.11111111 -0.00000000       0.002
  -0.00000000  0.16666667 -0.00000000       0.002
  -0.16666667  0.16666667 -0.00000000       0.002
   0.05555556  0.16666667  0.00000000       0.002
  -0.22222222  0.16666667 -0.00000000       0.002
   0.11111111  0.16666667  0.00000000       0.002
  -0.27777778  0.16666667 -0.00000000       0.002
   0.16666667  0.16666667 -0.00000000       0.002
  -0.33333333  0.16666667  0.00000000       0.002
   0.22222222  0.16666667 -0.00000000       0.002
  -0.38888889  0.16666667 -0.00000000       0.002
   0.27777778  0.16666667  0.00000000       0.002
  -0.44444444  0.16666667 -0.00000000       0.002
   0.33333333  0.16666667  0.00000000       0.002
   0.50000000  0.16666667 -0.00000000       0.002
[...]
  -0.33333333  0.44444444  0.50000000       0.002
  -0.11111111  0.44444444  0.50000000       0.002
  -0.27777778  0.44444444  0.50000000       0.002
  -0.16666667  0.44444444  0.50000000       0.002
  -0.22222222  0.44444444  0.50000000       0.002
   0.00000000  0.50000000  0.50000000       0.001
   0.50000000  0.50000000  0.50000000       0.001
   0.05555556  0.50000000  0.50000000       0.002
   0.44444444  0.50000000  0.50000000       0.002
   0.11111111  0.50000000  0.50000000       0.002
   0.38888889  0.50000000  0.50000000       0.002
   0.16666667  0.50000000  0.50000000       0.002
   0.33333333  0.50000000  0.50000000       0.002
   0.22222222  0.50000000  0.50000000       0.002
   0.27777778  0.50000000  0.50000000       0.002

 position of ions in fractional coordinates (direct lattice)
   0.11779419  0.99825441  0.99999966
   0.78445327  0.33158056  0.00000022
   0.46503882  0.66841940  0.49999980
   0.13169788  0.00174563  0.50000032

 position of ions in cartesian coordinates  (Angst):
  -0.94030031  2.13242891  8.79999698
   1.52607788  0.70812687  0.00000192
   0.32289360  1.42775525  4.39999818
   0.32269103  0.00369685  4.40000283

 k-point   1 :   0.0000 0.0000 0.0000  plane waves:    1251
 k-point   2 :   0.0556-0.0000 0.0000  plane waves:    1254
 k-point   3 :   0.1111-0.0000-0.0000  plane waves:    1252
 k-point   4 :   0.1667-0.0000-0.0000  plane waves:    1256
 k-point   5 :   0.2222 0.0000 0.0000  plane waves:    1272
 k-point   6 :   0.2778-0.0000 0.0000  plane waves:    1256
 k-point   7 :   0.3333-0.0000-0.0000  plane waves:    1258
 k-point   8 :   0.3889 0.0000-0.0000  plane waves:    1236
 k-point   9 :   0.4444 0.0000 0.0000  plane waves:    1240
 k-point  10 :   0.5000 0.0000 0.0000  plane waves:    1240
 k-point  11 :  -0.0000 0.0556-0.0000  plane waves:    1258
 k-point  12 :  -0.0556 0.0556-0.0000  plane waves:    1258
 k-point  13 :   0.0556 0.0556 0.0000  plane waves:    1255
 k-point  14 :  -0.1111 0.0556-0.0000  plane waves:    1255
 k-point  15 :   0.1111 0.0556 0.0000  plane waves:    1253
 k-point  16 :  -0.1667 0.0556-0.0000  plane waves:    1253
 k-point  17 :   0.1667 0.0556-0.0000  plane waves:    1254
 k-point  18 :  -0.2222 0.0556-0.0000  plane waves:    1254
 k-point  19 :   0.2222 0.0556 0.0000  plane waves:    1260
 k-point  20 :  -0.2778 0.0556-0.0000  plane waves:    1260
 k-point  21 :   0.2778 0.0556 0.0000  plane waves:    1264
 k-point  22 :  -0.3333 0.0556-0.0000  plane waves:    1264
 k-point  23 :   0.3333 0.0556-0.0000  plane waves:    1250
 k-point  24 :  -0.3889 0.0556 0.0000  plane waves:    1250
 k-point  25 :   0.3889 0.0556-0.0000  plane waves:    1241
 k-point  26 :  -0.4444 0.0556-0.0000  plane waves:    1241
 k-point  27 :   0.4444 0.0556 0.0000  plane waves:    1244
 k-point  28 :   0.5000 0.0556-0.0000  plane waves:    1244
 k-point  29 :  -0.0000 0.1111-0.0000  plane waves:    1252
 k-point  30 :  -0.1111 0.1111 0.0000  plane waves:    1252
 k-point  31 :   0.0556 0.1111 0.0000  plane waves:    1253
 k-point  32 :  -0.1667 0.1111 0.0000  plane waves:    1253
 k-point  33 :   0.1111 0.1111 0.0000  plane waves:    1253
 k-point  34 :  -0.2222 0.1111-0.0000  plane waves:    1253
 k-point  35 :   0.1667 0.1111-0.0000  plane waves:    1257
 k-point  36 :  -0.2778 0.1111 0.0000  plane waves:    1257
 k-point  37 :   0.2222 0.1111-0.0000  plane waves:    1256
 k-point  38 :  -0.3333 0.1111 0.0000  plane waves:    1256
 k-point  39 :   0.2778 0.1111 0.0000  plane waves:    1258
 k-point  40 :  -0.3889 0.1111-0.0000  plane waves:    1258
 k-point  41 :   0.3333 0.1111-0.0000  plane waves:    1248
 k-point  42 :  -0.4444 0.1111 0.0000  plane waves:    1250
 k-point  43 :   0.3889 0.1111-0.0000  plane waves:    1243
 k-point  44 :   0.5000 0.1111 0.0000  plane waves:    1243
 k-point  45 :   0.4444 0.1111 0.0000  plane waves:    1240
 k-point  46 :  -0.0556 0.1111-0.0000  plane waves:    1255
 k-point  47 :  -0.0000 0.1667-0.0000  plane waves:    1256
 k-point  48 :  -0.1667 0.1667-0.0000  plane waves:    1256
 k-point  49 :   0.0556 0.1667 0.0000  plane waves:    1254
 k-point  50 :  -0.2222 0.1667-0.0000  plane waves:    1254
 k-point  51 :   0.1111 0.1667 0.0000  plane waves:    1257
 k-point  52 :  -0.2778 0.1667-0.0000  plane waves:    1257
 k-point  53 :   0.1667 0.1667-0.0000  plane waves:    1255
 k-point  54 :  -0.3333 0.1667 0.0000  plane waves:    1255
 k-point  55 :   0.2222 0.1667-0.0000  plane waves:    1251
 k-point  56 :  -0.3889 0.1667-0.0000  plane waves:    1251
 k-point  57 :   0.2778 0.1667 0.0000  plane waves:    1242
 k-point  58 :  -0.4444 0.1667-0.0000  plane waves:    1242
 k-point  59 :   0.3333 0.1667 0.0000  plane waves:    1243
 k-point  60 :   0.5000 0.1667-0.0000  plane waves:    1243
[...]
 k-point 478 :  -0.3333 0.4444 0.5000  plane waves:    1238
 k-point 479 :  -0.1111 0.4444 0.5000  plane waves:    1238
 k-point 480 :  -0.2778 0.4444 0.5000  plane waves:    1234
 k-point 481 :  -0.1667 0.4444 0.5000  plane waves:    1234
 k-point 482 :  -0.2222 0.4444 0.5000  plane waves:    1230
 k-point 483 :   0.0000 0.5000 0.5000  plane waves:    1248
 k-point 484 :   0.5000 0.5000 0.5000  plane waves:    1248
 k-point 485 :   0.0556 0.5000 0.5000  plane waves:    1242
 k-point 486 :   0.4444 0.5000 0.5000  plane waves:    1242
 k-point 487 :   0.1111 0.5000 0.5000  plane waves:    1238
 k-point 488 :   0.3889 0.5000 0.5000  plane waves:    1238
 k-point 489 :   0.1667 0.5000 0.5000  plane waves:    1240
 k-point 490 :   0.3333 0.5000 0.5000  plane waves:    1240
 k-point 491 :   0.2222 0.5000 0.5000  plane waves:    1234
 k-point 492 :   0.2778 0.5000 0.5000  plane waves:    1234

 maximum and minimum number of plane-waves per node :       104       71

 maximum number of plane-waves:      1272
 maximum index in each direction:
   IXMAX=    5   IYMAX=    4   IZMAX=   16
   IXMIN=   -5   IYMIN=   -5   IZMIN=  -16

 parallel 3D FFT for wavefunctions:
    minimum data exchange during FFTs selected (reduces bandwidth)
 parallel 3D FFT for charge:
    minimum data exchange during FFTs selected (reduces bandwidth)

 Broyden mixing: mesh for mixing (old mesh)
   NGX =  9   NGY =  9   NGZ = 33
  (NGX  = 36   NGY  = 36   NGZ  =140)
  gives a total of   2673 points

 initial charge density was supplied:
 charge density of overlapping atoms calculated
 number of electron      16.0000000 magnetization
 keeping initial charge density in first step

 Maximum index for augmentation-charges         2233 (set IRDMAX)

 First call to EWALD:  gamma=   0.493
 Maximum number of real-space cells 4x 4x 1
 Maximum number of reciprocal cells 2x 2x 6

--------------------------------------- Iteration      1(   1)  ---------------------------------------

 eigenvalue-minimisations  : 11816
 total energy-change (2. order) : 0.5495161E+02  (-0.7494459E+03)
 number of electron      16.0000000 magnetization
 augmentation part       16.0000000 magnetization

 Free energy of the ion-electron system (eV)
  alpha Z        PSCENC =        28.34769681
  Ewald energy   TEWEN  =      -269.30436385
  -Hartree energ DENC   =      -287.85820379
  -exchange      EXHF   =         0.00000000
  -V(xc)+E(xc)   XCENC  =        52.74792015
  PAW double counting   =       434.08818552     -436.36580876
  entropy T*S    EENTRO =        -0.00057554
  eigenvalues    EBANDS =       -55.29881853
  atomic energy  EATOM  =       588.59557325
  Solvation  Ediel_sol  =         0.00000000
  free energy    TOTEN  =        54.95160527 eV

  energy without entropy =       54.95218081  energy(sigma->0) =       54.95189304

[...]

 eigenvalue-minimisations  : 16588
 total energy-change (2. order) :-0.8958660E+02  (-0.8197047E+02)
 number of electron      16.0000000 magnetization
 augmentation part       16.0000000 magnetization

[...]

 Broyden mixing:
  rms(total) = 0.89147E+00    rms(broyden)= 0.89136E+00
  rms(prec ) = 0.11752E+01
  weight for this iteration     100.00

[...]

 eigenvalues of (default mixing * dielectric matrix)
  average eigenvalue GAMMA=   2.1982
  2.1982

[...]

 eigenvalue-minimisations  : 14804
 total energy-change (2. order) : 0.3723263E-06  (-0.5468377E-07)
 number of electron      16.0000000 magnetization
 augmentation part        0.3838292 magnetization

[...]

 Broyden mixing:
  rms(total) = 0.13783E-04    rms(broyden)= 0.13718E-04
  rms(prec ) = 0.16286E-04
  weight for this iteration     100.00

[...]

 Broyden mixing:
  rms(total) = 0.23096E-05    rms(broyden)= 0.19245E-05
  rms(prec ) = 0.23767E-05
  weight for this iteration     100.00
  WARNING: grid for Broyden might be to small

 eigenvalues of (default mixing * dielectric matrix)
  average eigenvalue GAMMA=   1.8331
  3.1782  2.8766  2.5381  2.4288  1.9678  0.9841  0.9841  1.0415  1.1659  1.1659

[...]

--------------------------------------- Iteration      1(  16)  ---------------------------------------

 eigenvalue-minimisations  :  9572
 total energy-change (2. order) :-0.1948365E-08  (-0.2389313E-10)
 number of electron      16.0000000 magnetization
 augmentation part        0.3838275 magnetization

 Free energy of the ion-electron system (eV)
  alpha Z        PSCENC =        28.34769681
  Ewald energy   TEWEN  =      -269.30436385
  -Hartree energ DENC   =      -331.85082555
  -exchange      EXHF   =         0.00000000
  -V(xc)+E(xc)   XCENC  =        55.08041711
  PAW double counting   =      1667.87015785    -1670.60555492
  entropy T*S    EENTRO =        -0.00045730
  eigenvalues    EBANDS =      -105.03113984
  atomic energy  EATOM  =       588.59557325
  Solvation  Ediel_sol  =         0.00000000
  free energy    TOTEN  =       -36.89849644 eV

  energy without entropy =      -36.89803915  energy(sigma->0) =      -36.89826779

 average (electrostatic) potential at core
  the test charge radii are     0.6991
  (the norm of the test charge is              1.0000)
       1 -52.8680       2 -52.8670       3 -52.8670       4 -52.8681

 E-fermi :   2.5661     XC(G=0):  -8.5262     alpha+bet : -8.6464

 Fermi energy:         2.5660581511

 k-point     1 :       0.0000    0.0000    0.0000
  band No.  band energies     occupation
      1     -16.9520      2.00000
      2     -16.9259      2.00000
      3      -5.2334      2.00000
      4      -4.8447      2.00000
      5      -0.4611      2.00000
      6      -0.4603      2.00000
      7      -0.4603      2.00000
      8      -0.4596      2.00000
      9       5.5783      0.00000
     10       8.6075      0.00000
     11      10.8839      0.00000
     12      10.8861      0.00000

[...]

 k-point   492 :       0.2778    0.5000    0.5000
  band No.  band energies     occupation
      1     -12.6394      2.00000
      2     -12.6394      2.00000
      3      -8.0971      2.00000
      4      -8.0971      2.00000
      5      -6.2218      2.00000
      6      -6.2218      2.00000
      7      -0.1599      2.00000
      8      -0.1599      2.00000
      9       5.3420      0.00000
     10       5.3420      0.00000
     11      12.0807      0.00000
     12      12.0808      0.00000

 soft charge-density along one line, spin component           1
         0         1         2         3         4         5         6         7         8         9
 total charge-density along one line

------------------------ aborting loop because EDIFF is reached ----------------------------------------

         DFTD3 V3.0 Rev 1
 IVDW         = 12
 DF pbe
 parameters
 VDW_S6       =    1.0000
 VDW_S8       =    0.7875
 VDW_A1       =    0.4289
 VDW_A2       =    4.4407
 k1-k3        =   16.0000    1.3333   -4.0000
 VDW_RADIUS   =   50.2022 A
 VDW_CNRADIUS =   21.1671 A
 Edisp (eV)   -0.46286

 E6    (eV) :    -0.3332
 E8    (eV) :    -0.1297
 % E8        : 28.02

  FORCE on cell =-STRESS in cart. coord.  units (eV):
  Direction    XX          YY          ZZ          XY          YZ          ZX
  Alpha Z    28.34770    28.34770    28.34770
  Ewald     268.33424   268.32763  -805.96644     0.00016    -0.00002    -0.00002
  Hartree   309.20812   309.20761  -286.56489     0.00004    -0.00001    -0.00001
  E(xc)     -59.41117   -59.41124   -61.63605     0.00003    -0.00000    -0.00000
  Local    -770.55521  -770.54941   865.48038    -0.00026     0.00003     0.00003
  n-local   -14.25186   -14.25271   -12.99688     0.00055     0.00052     0.00082
  augment    -1.55703    -1.55697    -1.43540     0.00001    -0.00000    -0.00000
  Kinetic   240.06838   240.07485   274.74678    -0.00349    -0.00880    -0.01397
  Fock        0.00000     0.00000     0.00000     0.00000     0.00000     0.00000
  vdW        -0.10011    -0.10006    -0.41684    -0.00003    -0.00000    -0.00000
  Total       0.08304     0.08739    -0.44163    -0.00299     0.00000     0.00000
  in kB       2.86967     3.01992   -15.26091    -0.10331     0.00000     0.00000

 VOLUME and BASIS-vectors are now :
  energy-cutoff  :      520.00
  volume of cell :       46.37
      direct lattice vectors                 reciprocal lattice vectors
     2.466580556 -0.000243583 -0.000000049     0.405442669  0.234020469  0.000000005
    -1.233001436  2.136186615 -0.000000006     0.000046231  0.468150580  0.000000006
    -0.000000044 -0.000000106  8.800000000     0.000000002  0.000000002  0.113636364

  length of vectors
     2.466580568  2.466492610  8.800000000     0.468133888  0.468150582  0.113636364

 FORCES acting on ions
    electron-ion (+dipol)            ewald-force                    non-local-force                 convergence-correction
   -.623E-02 -.313E-02 0.999E-03   0.608E-02 0.304E-02 -.102E-02   -.126E-03 -.221E-03 0.567E-11   0.800E-06 0.381E-06 -.896E-05
   0.597E-02 0.370E-02 -.228E-02   -.590E-02 -.299E-02 0.128E-02   0.145E-03 0.229E-03 -.617E-11   0.872E-07 -.617E-06 -.896E-05
   -.607E-02 -.303E-02 0.220E-03   0.587E-02 0.302E-02 -.120E-02   -.145E-03 -.229E-03 0.617E-11   -.872E-07 0.617E-06 0.911E-05
   0.616E-02 0.370E-02 -.284E-02   -.605E-02 -.307E-02 0.938E-03   0.126E-03 0.221E-03 -.567E-11   -.800E-06 -.381E-06 0.912E-05
   -.158E-03 0.125E-02 -.390E-02   0.296E-14 0.421E-15 0.000E+00   0.000E+00 0.000E+00 0.102E-19   -.234E-11 -.134E-09 0.306E-06

 POSITION                                       TOTAL-FORCE (eV/Angst)
     -0.94030      2.13243      8.80000        -0.000261     -0.000579      0.000000
      1.52608      0.70813      0.00000         0.000282      0.000587     -0.000000
      0.32289      1.42776      4.40000        -0.000282     -0.000587      0.000000
      0.32269      0.00370      4.40000         0.000261      0.000579     -0.000000
    total drift:                               -0.000158      0.001250     -0.003896

  FREE ENERGIE OF THE ION-ELECTRON SYSTEM (eV)
  free  energy   TOTEN  =       -37.36135379 eV

  energy  without entropy=      -37.36089650  energy(sigma->0) =      -37.36112514