 vasp.6.3.1 04May22 (build Aug 04 2022 13:02:54) complex

 executed on             LinuxIFC date 2024.11.24  12:51:25

 INCAR:
   ISTART = 1            (Read existing wavefunction
   ISPIN = 1            (Non-Spin polarised DFT)
   LREAL = .FALSE.       (Projection operators: automatic)
   ENCUT = 520        (Cut-off energy for plane wave basis set, in eV)
   PREC = A       (Precision level)
   LWAVE = .FALSE.        (Write WAVECAR or not)
   LCHARG = .FALSE.        (Write CHGCAR or not)
   ADDGRID = .TRUE.        (Increase grid
   KSPACING = 0.2000
   KGAMMA = .FALSE.
   IVDW = 12
   ISMEAR = 0            (Gaussian smearing
   SIGMA = 0.05         (Smearing value in eV
   NELM = 200           (Max electronic SCF steps)
   NELMIN = 6            (Min electronic SCF steps)
   EDIFF = 1E-08        (SCF energy convergence
   NSW = 0          (Max ionic steps)
   IBRION = -1            (Algorithm: 0-MD
   ISIF = 3           (Stress/relaxation: 2-Ions, 3-Shape/Ions/V, 4-Shape/Ions)
   EDIFFG = -1E-04        (Ionic convergence
   NCORE = 14

 POTCAR:    PAW_PBE C 08Apr2002
|           W    W    AA    RRRRR   N    N  II  N    N   GGGG   !!!           |
|           W    W   A  A   R    R  NN   N  II  NN   N  G    G  !!!           |
|           W    W  A    A  R    R  N N  N  II  N N  N  G       !!!           |
|           W WW W  AAAAAA  RRRRR   N  N N  II  N  N N  G  GGG   !            |
|           WW  WW  A    A  R   R   N   NN  II  N   NN  G    G                |
|           W    W  A    A  R    R  N    N  II  N    N   GGGG   !!!           |
|     For optimal performance we recommend to set                             |
|       NCORE = 2 up to number-of-cores-per-socket                            |
|     This setting can greatly improve the performance of VASP for DFT.       |
|     The default, NCORE=1 might be grossly inefficient on modern             |
|     multi-core architectures or massively parallel machines. Do your        |
|     Unfortunately you need to use the default for GW and RPA                |
|     calculations (for HF NCORE is supported but not extensively tested      |
|     yet).                                                                   |

 POTCAR:    PAW_PBE C 08Apr2002
   VRHFIN =C: s2p2

   TITEL  = PAW_PBE C 08Apr2002
   POMASS =   12.011; ZVAL   =    4.000    mass and valenz
   ENMAX  =  400.000; ENMIN  =  300.000 eV

  PAW_PBE C 08Apr2002                   :

 POSCAR: AA-stacked Graphene
  positions in direct lattice
  velocities in cartesian coordinates
 exchange correlation table for  LEXCH =        8
   RHO(1)=    0.500       N(1)  =     2000
   RHO(2)=  100.500       N(2)  =     4000

 ion  position               nearest neighbor table
   1  1.000  1.000  0.000-   2 1.42   2 1.42   2 1.42
   2  0.666  0.333  0.000-   1 1.42   1 1.42   1 1.42
   3  1.000  1.000  0.500-   4 1.42   4 1.42   4 1.42
   4  0.666  0.333  0.500-   3 1.42   3 1.42   3 1.42

  LATTYP: Found a hexagonal cell.
 ALAT       =     2.4663032719
 C/A-ratio  =     5.2710468124

  Lattice vectors:

 A1 = (   2.4663032553,  -0.0002866376,   0.0000000000)
 A2 = (  -1.2328986900,   2.1360225972,   0.0000000000)
 A3 = (   0.0000000000,   0.0000000000,  13.0000000000)

Analysis of symmetry for initial positions (statically):
 Subroutine PRICEL returns following result:

[...]

   2 primitive cells build up your supercell.

 Routine SETGRP: Setting up the symmetry group for a
 hexagonal supercell.

 Subroutine GETGRP returns: Found 24 space group operations
 (whereof  2 operations were pure point group operations)
 out of a pool of 24 trial point group operations.

The static configuration has the point symmetry C_1h.
 The point group associated with its full space group is D_6h.

Analysis of symmetry for dynamics (positions and initial velocities):
 Subroutine PRICEL returns following result:

  LATTYP: Found a hexagonal cell.
 ALAT       =     2.4663032719
 C/A-ratio  =     2.6355234062

  Lattice vectors:

 A1 = (   2.4663032553,  -0.0002866376,   0.0000000000)
 A2 = (  -1.2328986900,   2.1360225972,   0.0000000000)
 A3 = (   0.0000000000,   0.0000000000,   6.5000000000)

   2 primitive cells build up your supercell.

 Routine SETGRP: Setting up the symmetry group for a
 hexagonal supercell.

 Subroutine GETGRP returns: Found 24 space group operations
 (whereof  2 operations were pure point group operations)
 out of a pool of 24 trial point group operations.

The dynamic configuration has the point symmetry C_1h.
 The point group associated with its full space group is D_6h.

 Subroutine INISYM returns: Found 24 space group operations
 (whereof  2 operations are pure point group operations),
 and found     2 'primitive' translations

                                     Primitive cell

  volume of cell :      34.2402

  direct lattice vectors                    reciprocal lattice vectors
     2.466303255 -0.000286638  0.000000000     0.405492344  0.234047608  0.000000000
    -1.232898690  2.136022597  0.000000000     0.000054414  0.468191249  0.000000000
     0.000000000  0.000000000  6.500000000     0.000000000  0.000000000  0.153846154

  length of vectors
     2.466303272  2.466299194  6.500000000     0.468190478  0.468191252  0.153846154

  position of ions in fractional coordinates (direct lattice)
     0.999825905  0.999922181  0.000000000
     0.666491690  0.333254731  0.000000000

  ion indices of the primitive-cell ions
   primitive index   ion index
                 1           1
                 2           2

 KPOINTS: K-Spacing Value to Generate K-Mesh: 0.03

Automatic generation of k-mesh.
 Grid dimensions read from file:
 generate k-points for:   18   18    3

 Generating k-lattice:

  Cartesian coordinates                     Fractional coordinates (reciprocal lattice)
     0.022527352  0.013002645  0.000000000     0.055555556 -0.000000000  0.000000000
     0.000003023  0.026010625  0.000000000    -0.000000000  0.055555556  0.000000000
     0.000000000  0.000000000  0.025641026     0.000000000  0.000000000  0.333333333

  Length of vectors
     0.026010582  0.026010625  0.025641026

  Shift w.r.t. Gamma in fractional coordinates (k-lattice)
     0.000000000  0.000000000  0.000000000

 Subroutine IBZKPT returns following result:

 Found     74 irreducible k-points:

 Following reciprocal coordinates:
            Coordinates               Weight
  0.000000  0.000000  0.000000      1.000000
  0.055556 -0.000000  0.000000      6.000000
  0.111111 -0.000000  0.000000      6.000000
  0.166667 -0.000000  0.000000      6.000000
  0.222222 -0.000000  0.000000      6.000000
  0.277778 -0.000000  0.000000      6.000000
  0.333333 -0.000000  0.000000      6.000000
  0.388889 -0.000000  0.000000      6.000000
  0.444444 -0.000000  0.000000      6.000000
  0.500000 -0.000000  0.000000      3.000000
  0.055556  0.055556  0.000000      6.000000
  0.111111  0.055556  0.000000     12.000000
  0.166667  0.055556  0.000000     12.000000
  0.222222  0.055556  0.000000     12.000000
  0.277778  0.055556  0.000000     12.000000
  0.333333  0.055556  0.000000     12.000000
  0.388889  0.055556  0.000000     12.000000
  0.444444  0.055556  0.000000     12.000000
  0.111111  0.111111  0.000000      6.000000
  0.166667  0.111111  0.000000     12.000000
  0.222222  0.111111  0.000000     12.000000
  0.277778  0.111111  0.000000     12.000000
  0.333333  0.111111  0.000000     12.000000
  0.388889  0.111111  0.000000     12.000000
  0.444444  0.111111  0.000000      6.000000
  0.166667  0.166667  0.000000      6.000000
  0.222222  0.166667  0.000000     12.000000
  0.277778  0.166667  0.000000     12.000000
  0.333333  0.166667  0.000000     12.000000
  0.388889  0.166667  0.000000     12.000000
  0.222222  0.222222  0.000000      6.000000
  0.277778  0.222222  0.000000     12.000000
  0.333333  0.222222  0.000000     12.000000
  0.388889  0.222222  0.000000      6.000000
  0.277778  0.277778  0.000000      6.000000
  0.333333  0.277778  0.000000     12.000000
  0.333333  0.333333  0.000000      2.000000
  0.000000  0.000000  0.333333      2.000000
  0.055556 -0.000000  0.333333     12.000000
  0.111111 -0.000000  0.333333     12.000000
  0.166667 -0.000000  0.333333     12.000000
  0.222222 -0.000000  0.333333     12.000000
  0.277778 -0.000000  0.333333     12.000000
  0.333333 -0.000000  0.333333     12.000000
  0.388889 -0.000000  0.333333     12.000000
  0.444444 -0.000000  0.333333     12.000000
  0.500000 -0.000000  0.333333      6.000000
  0.055556  0.055556  0.333333     12.000000
  0.111111  0.055556  0.333333     24.000000
  0.166667  0.055556  0.333333     24.000000
  0.222222  0.055556  0.333333     24.000000
  0.277778  0.055556  0.333333     24.000000
  0.333333  0.055556  0.333333     24.000000
  0.388889  0.055556  0.333333     24.000000
  0.444444  0.055556  0.333333     24.000000
  0.111111  0.111111  0.333333     12.000000
  0.166667  0.111111  0.333333     24.000000
  0.222222  0.111111  0.333333     24.000000
  0.277778  0.111111  0.333333     24.000000
  0.333333  0.111111  0.333333     24.000000
  0.388889  0.111111  0.333333     24.000000
  0.444444  0.111111  0.333333     12.000000
  0.166667  0.166667  0.333333     12.000000
  0.222222  0.166667  0.333333     24.000000
  0.277778  0.166667  0.333333     24.000000
  0.333333  0.166667  0.333333     24.000000
  0.388889  0.166667  0.333333     24.000000
  0.222222  0.222222  0.333333     12.000000
  0.277778  0.222222  0.333333     24.000000
  0.333333  0.222222  0.333333     24.000000
  0.388889  0.222222  0.333333     12.000000
  0.277778  0.277778  0.333333     12.000000
  0.333333  0.277778  0.333333     24.000000
  0.333333  0.333333  0.333333      4.000000

 Following cartesian coordinates:
            Coordinates               Weight
  0.000000  0.000000  0.000000      1.000000
  0.022527  0.013003  0.000000      6.000000
  0.045055  0.026005  0.000000      6.000000
  0.067582  0.039008  0.000000      6.000000
  0.090109  0.052011  0.000000      6.000000
  0.112637  0.065013  0.000000      6.000000
  0.135164  0.078016  0.000000      6.000000
  0.157691  0.091019  0.000000      6.000000
  0.180219  0.104021  0.000000      6.000000
  0.202746  0.117024  0.000000      3.000000
  0.022530  0.039013  0.000000      6.000000
  0.045058  0.052016  0.000000     12.000000
  0.067585  0.065019  0.000000     12.000000
  0.090112  0.078021  0.000000     12.000000
  0.112640  0.091024  0.000000     12.000000
  0.135167  0.104026  0.000000     12.000000
  0.157694  0.117029  0.000000     12.000000
  0.180222  0.130032  0.000000     12.000000
  0.045061  0.078027  0.000000      6.000000
  0.067588  0.091029  0.000000     12.000000
  0.090115  0.104032  0.000000     12.000000
  0.112643  0.117034  0.000000     12.000000
  0.135170  0.130037  0.000000     12.000000
  0.157698  0.143040  0.000000     12.000000
  0.180225  0.156042  0.000000      6.000000
  0.067591  0.117040  0.000000      6.000000
  0.090118  0.130042  0.000000     12.000000
  0.112646  0.143045  0.000000     12.000000
  0.135173  0.156048  0.000000     12.000000
  0.157701  0.169050  0.000000     12.000000
  0.090122  0.156053  0.000000      6.000000
[...]
   0.27777778  0.05555556  0.00000000       0.012
   0.33333333  0.05555556  0.00000000       0.012
   0.38888889  0.05555556  0.00000000       0.012
   0.44444444  0.05555556  0.00000000       0.012
   0.11111111  0.11111111  0.00000000       0.006
   0.16666667  0.11111111  0.00000000       0.012
   0.22222222  0.11111111  0.00000000       0.012
   0.27777778  0.11111111  0.00000000       0.012
   0.33333333  0.11111111  0.00000000       0.012
   0.38888889  0.11111111  0.00000000       0.012
   0.44444444  0.11111111  0.00000000       0.006
   0.16666667  0.16666667  0.00000000       0.006
   0.22222222  0.16666667  0.00000000       0.012
   0.27777778  0.16666667  0.00000000       0.012
   0.33333333  0.16666667  0.00000000       0.012
   0.38888889  0.16666667  0.00000000       0.012
   0.22222222  0.22222222  0.00000000       0.006
   0.27777778  0.22222222  0.00000000       0.012
   0.33333333  0.22222222  0.00000000       0.012
   0.38888889  0.22222222  0.00000000       0.006
   0.27777778  0.27777778  0.00000000       0.006
   0.33333333  0.27777778  0.00000000       0.012
   0.33333333  0.33333333  0.00000000       0.002
   0.00000000  0.00000000  0.33333333       0.002
   0.05555556 -0.00000000  0.33333333       0.012
   0.11111111 -0.00000000  0.33333333       0.012
   0.16666667 -0.00000000  0.33333333       0.012
   0.22222222 -0.00000000  0.33333333       0.012
   0.27777778 -0.00000000  0.33333333       0.012
   0.33333333 -0.00000000  0.33333333       0.012
   0.38888889 -0.00000000  0.33333333       0.012
   0.44444444 -0.00000000  0.33333333       0.012
   0.50000000 -0.00000000  0.33333333       0.006
   0.05555556  0.05555556  0.33333333       0.012
   0.11111111  0.05555556  0.33333333       0.025
   0.16666667  0.05555556  0.33333333       0.025
   0.22222222  0.05555556  0.33333333       0.025
   0.27777778  0.05555556  0.33333333       0.025
   0.33333333  0.05555556  0.33333333       0.025
   0.38888889  0.05555556  0.33333333       0.025
   0.44444444  0.05555556  0.33333333       0.025
   0.11111111  0.11111111  0.33333333       0.012
   0.16666667  0.11111111  0.33333333       0.025
   0.22222222  0.11111111  0.33333333       0.025
   0.27777778  0.11111111  0.33333333       0.025
   0.33333333  0.11111111  0.33333333       0.025
   0.38888889  0.11111111  0.33333333       0.025
   0.44444444  0.11111111  0.33333333       0.012
   0.16666667  0.16666667  0.33333333       0.012
   0.22222222  0.16666667  0.33333333       0.025
   0.27777778  0.16666667  0.33333333       0.025
   0.33333333  0.16666667  0.33333333       0.025
   0.38888889  0.16666667  0.33333333       0.025
   0.22222222  0.22222222  0.33333333       0.012
   0.27777778  0.22222222  0.33333333       0.025
   0.33333333  0.22222222  0.33333333       0.025
   0.38888889  0.22222222  0.33333333       0.012
   0.27777778  0.27777778  0.33333333       0.012
   0.33333333  0.27777778  0.33333333       0.025
   0.33333333  0.33333333  0.33333333       0.004

 position of ions in fractional coordinates (direct lattice)
   0.99982591  0.99992218  0.00000000
   0.66649169  0.33325473  0.00000000
   0.99982591  0.99992218  0.50000000
   0.66649169  0.33325473  0.50000000

 position of ions in cartesian coordinates  (Angst):
   1.23307114  2.13556979  0.00000000
   1.23290130  0.71164859  0.00000000
   1.23307114  2.13556979  6.50000000
   1.23290130  0.71164859  6.50000000

 k-point   1 :   0.0000 0.0000 0.0000  plane waves:    1855
 k-point   2 :   0.0556-0.0000 0.0000  plane waves:    1848
 k-point   3 :   0.1111-0.0000 0.0000  plane waves:    1870
 k-point   4 :   0.1667-0.0000 0.0000  plane waves:    1876
 k-point   5 :   0.2222-0.0000 0.0000  plane waves:    1866
 k-point   6 :   0.2778-0.0000 0.0000  plane waves:    1860
 k-point   7 :   0.3333-0.0000 0.0000  plane waves:    1858
 k-point   8 :   0.3889-0.0000 0.0000  plane waves:    1840
 k-point   9 :   0.4444-0.0000 0.0000  plane waves:    1834
 k-point  10 :   0.5000-0.0000 0.0000  plane waves:    1824
 k-point  11 :   0.0556 0.0556 0.0000  plane waves:    1859
 k-point  12 :   0.1111 0.0556 0.0000  plane waves:    1865
 k-point  13 :   0.1667 0.0556 0.0000  plane waves:    1874
 k-point  14 :   0.2222 0.0556 0.0000  plane waves:    1862
 k-point  15 :   0.2778 0.0556 0.0000  plane waves:    1858
 k-point  16 :   0.3333 0.0556 0.0000  plane waves:    1846
 k-point  17 :   0.3889 0.0556 0.0000  plane waves:    1829
 k-point  18 :   0.4444 0.0556 0.0000  plane waves:    1830
 k-point  19 :   0.1111 0.1111 0.0000  plane waves:    1863
 k-point  20 :   0.1667 0.1111 0.0000  plane waves:    1861
 k-point  21 :   0.2222 0.1111 0.0000  plane waves:    1860
 k-point  22 :   0.2778 0.1111 0.0000  plane waves:    1842
 k-point  23 :   0.3333 0.1111 0.0000  plane waves:    1832
 k-point  24 :   0.3889 0.1111 0.0000  plane waves:    1835
 k-point  25 :   0.4444 0.1111 0.0000  plane waves:    1832
 k-point  26 :   0.1667 0.1667 0.0000  plane waves:    1847
 k-point  27 :   0.2222 0.1667 0.0000  plane waves:    1841
 k-point  28 :   0.2778 0.1667 0.0000  plane waves:    1824
 k-point  29 :   0.3333 0.1667 0.0000  plane waves:    1839
 k-point  30 :   0.3889 0.1667 0.0000  plane waves:    1829
 k-point  31 :   0.2222 0.2222 0.0000  plane waves:    1827
 k-point  32 :   0.2778 0.2222 0.0000  plane waves:    1835
 k-point  33 :   0.3333 0.2222 0.0000  plane waves:    1824
 k-point  34 :   0.3889 0.2222 0.0000  plane waves:    1832
 k-point  35 :   0.2778 0.2778 0.0000  plane waves:    1821
 k-point  36 :   0.3333 0.2778 0.0000  plane waves:    1816
 k-point  37 :   0.3333 0.3333 0.0000  plane waves:    1824
 k-point  38 :   0.0000 0.0000 0.3333  plane waves:    1854
 k-point  39 :   0.0556-0.0000 0.3333  plane waves:    1852
 k-point  40 :   0.1111-0.0000 0.3333  plane waves:    1869
 k-point  41 :   0.1667-0.0000 0.3333  plane waves:    1865
 k-point  42 :   0.2222-0.0000 0.3333  plane waves:    1870
 k-point  43 :   0.2778-0.0000 0.3333  plane waves:    1863
 k-point  44 :   0.3333-0.0000 0.3333  plane waves:    1849
 k-point  45 :   0.3889-0.0000 0.3333  plane waves:    1830
 k-point  46 :   0.4444-0.0000 0.3333  plane waves:    1834
 k-point  47 :   0.5000-0.0000 0.3333  plane waves:    1834
 k-point  48 :   0.0556 0.0556 0.3333  plane waves:    1861
 k-point  49 :   0.1111 0.0556 0.3333  plane waves:    1860
 k-point  50 :   0.1667 0.0556 0.3333  plane waves:    1863
 k-point  51 :   0.2222 0.0556 0.3333  plane waves:    1866
 k-point  52 :   0.2778 0.0556 0.3333  plane waves:    1860
 k-point  53 :   0.3333 0.0556 0.3333  plane waves:    1844
 k-point  54 :   0.3889 0.0556 0.3333  plane waves:    1836
 k-point  55 :   0.4444 0.0556 0.3333  plane waves:    1837
 k-point  56 :   0.1111 0.1111 0.3333  plane waves:    1857
 k-point  57 :   0.1667 0.1111 0.3333  plane waves:    1858
 k-point  58 :   0.2222 0.1111 0.3333  plane waves:    1858
 k-point  59 :   0.2778 0.1111 0.3333  plane waves:    1851
 k-point  60 :   0.3333 0.1111 0.3333  plane waves:    1837
 k-point  61 :   0.3889 0.1111 0.3333  plane waves:    1832
 k-point  62 :   0.4444 0.1111 0.3333  plane waves:    1841
 k-point  63 :   0.1667 0.1667 0.3333  plane waves:    1856
 k-point  64 :   0.2222 0.1667 0.3333  plane waves:    1845
 k-point  65 :   0.2778 0.1667 0.3333  plane waves:    1835
 k-point  66 :   0.3333 0.1667 0.3333  plane waves:    1832
 k-point  67 :   0.3889 0.1667 0.3333  plane waves:    1834
 k-point  68 :   0.2222 0.2222 0.3333  plane waves:    1823
 k-point  69 :   0.2778 0.2222 0.3333  plane waves:    1828
 k-point  70 :   0.3333 0.2222 0.3333  plane waves:    1824
 k-point  71 :   0.3889 0.2222 0.3333  plane waves:    1822
 k-point  72 :   0.2778 0.2778 0.3333  plane waves:    1818
 k-point  73 :   0.3333 0.2778 0.3333  plane waves:    1815
 k-point  74 :   0.3333 0.3333 0.3333  plane waves:    1806

 maximum and minimum number of plane-waves per node :       146      120

 maximum number of plane-waves:      1876
 maximum index in each direction:
   IXMAX=    4   IYMAX=    4   IZMAX=   24
   IXMIN=   -5   IYMIN=   -4   IZMIN=  -24

 parallel 3D FFT for wavefunctions:
    minimum data exchange during FFTs selected (reduces bandwidth)
 parallel 3D FFT for charge:
    minimum data exchange during FFTs selected (reduces bandwidth)

 Broyden mixing: mesh for mixing (old mesh)
   NGX =  9   NGY =  9   NGZ = 49
  (NGX  = 36   NGY  = 36   NGZ  =196)
  gives a total of   3969 points

 initial charge density was supplied:
 charge density of overlapping atoms calculated
 number of electron      16.0000000 magnetization
 keeping initial charge density in first step

 Maximum index for augmentation-charges         2082 (set IRDMAX)

 First call to EWALD:  gamma=   0.433
 Maximum number of real-space cells 5x 5x 1
 Maximum number of reciprocal cells 2x 2x 8

--------------------------------------- Iteration      1(   1)  ---------------------------------------

 eigenvalue-minimisations  :  1784
 total energy-change (2. order) : 0.7771621E+02  (-0.7242047E+03)
 number of electron      16.0000000 magnetization
 augmentation part       16.0000000 magnetization

 Free energy of the ion-electron system (eV)
  alpha Z        PSCENC =        19.19303486
  Ewald energy   TEWEN  =       115.48464539
  -Hartree energ DENC   =      -618.04894622
  -exchange      EXHF   =         0.00000000
  -V(xc)+E(xc)   XCENC  =        52.71648875
  PAW double counting   =       434.08818552     -436.36580876
  entropy T*S    EENTRO =        -0.00206254
  eigenvalues    EBANDS =       -77.94489688
  atomic energy  EATOM  =       588.59557325
  Solvation  Ediel_sol  =         0.00000000
  free energy    TOTEN  =        77.71621337 eV

  energy without entropy =       77.71827591  energy(sigma->0) =       77.71724464

[...]

 eigenvalue-minimisations  :  2704
 total energy-change (2. order) :-0.1097335E+03  (-0.9871042E+02)
 number of electron      16.0000000 magnetization
 augmentation part       16.0000000 magnetization

[...]

 Broyden mixing:
  rms(total) = 0.89183E+00    rms(broyden)= 0.89172E+00
  rms(prec ) = 0.10325E+01
  weight for this iteration     100.00

[...]

 eigenvalues of (default mixing * dielectric matrix)
  average eigenvalue GAMMA=   2.2077
  2.2077

[...]

 eigenvalue-minimisations  :  2348
 total energy-change (2. order) : 0.3041216E-06  (-0.8955706E-07)
 number of electron      16.0000001 magnetization
 augmentation part        0.3839415 magnetization

[...]

 Broyden mixing:
  rms(total) = 0.35298E-04    rms(broyden)= 0.35268E-04
  rms(prec ) = 0.40723E-04
  weight for this iteration     100.00

 eigenvalues of (default mixing * dielectric matrix)
  average eigenvalue GAMMA=   2.0435
  4.5193  2.9053  2.5095  2.5095  2.0285  1.0304  0.9864  0.9864  0.9158

[...]

--------------------------------------- Iteration      1(  15)  ---------------------------------------

 eigenvalue-minimisations  :  2280
 total energy-change (2. order) :-0.1771696E-08  (-0.2356766E-08)
 number of electron      16.0000001 magnetization
 augmentation part        0.3839464 magnetization

 Free energy of the ion-electron system (eV)
  alpha Z        PSCENC =        19.19303486
  Ewald energy   TEWEN  =       115.48464539
  -Hartree energ DENC   =      -672.24891362
  -exchange      EXHF   =         0.00000000
  -V(xc)+E(xc)   XCENC  =        55.08245696
  PAW double counting   =      1668.79057167    -1671.52630180
  entropy T*S    EENTRO =        -0.00069597
  eigenvalues    EBANDS =      -140.26398133
  atomic energy  EATOM  =       588.59557325
  Solvation  Ediel_sol  =         0.00000000
  free energy    TOTEN  =       -36.89361060 eV

  energy without entropy =      -36.89291462  energy(sigma->0) =      -36.89326261

 average (electrostatic) potential at core
  the test charge radii are     0.6991
  (the norm of the test charge is              1.0000)
       1 -55.0682       2 -55.0681       3 -55.0682       4 -55.0681

 E-fermi :   0.3668     XC(G=0):  -6.3516     alpha+bet : -5.8541

 Fermi energy:         0.3667984448

 k-point     1 :       0.0000    0.0000    0.0000
  band No.  band energies     occupation
      1     -19.1426      2.00000
      2     -19.1426      2.00000
      3      -7.2518      2.00000
      4      -7.2391      2.00000
      5      -2.6616      2.00000
      6      -2.6616      2.00000
      7      -2.6615      2.00000
      8      -2.6615      2.00000
      9       3.0950      0.00000
     10       4.2292      0.00000
     11       5.2035      0.00000
     12       7.8750      0.00000

[...]

 k-point    74 :       0.3333    0.3333    0.3333
  band No.  band energies     occupation
      1     -12.2206      2.00000
      2     -12.2205      2.00000
      3     -12.2205      2.00000
      4     -12.2205      2.00000
      5     -10.1742      2.00000
      6     -10.1742      2.00000
      7       0.3658      1.02284
      8       0.3658      1.02209
      9       0.3678      0.97781
     10       0.3678      0.97707
     11      10.9060      0.00000
     12      11.0465      0.00000

 soft charge-density along one line, spin component           1
         0         1         2         3         4         5         6         7         8         9
 total charge-density along one line

------------------------ aborting loop because EDIFF is reached ----------------------------------------

         DFTD3 V3.0 Rev 1
 IVDW         = 12
 DF pbe
 parameters
 VDW_S6       =    1.0000
 VDW_S8       =    0.7875
 VDW_A1       =    0.4289
 VDW_A2       =    4.4407
 k1-k3        =   16.0000    1.3333   -4.0000
 VDW_RADIUS   =   50.2022 A
 VDW_CNRADIUS =   21.1671 A
 Edisp (eV)   -0.37652

 E6    (eV) :    -0.2638
 E8    (eV) :    -0.1128
 % E8        : 29.95

  FORCE on cell =-STRESS in cart. coord.  units (eV):
  Direction    XX          YY          ZZ          XY          YZ          ZX
  Alpha Z    19.19303    19.19303    19.19303
  Ewald     653.16479   653.16358 -1190.84378     0.00023     0.00000     0.00000
  Hartree   649.60277   649.60275  -626.95599     0.00001    -0.00000    -0.00000
  E(xc)     -59.41296   -59.41296   -61.63991     0.00000    -0.00000    -0.00000
  Local   -1486.61743 -1486.61670  1599.89223    -0.00032     0.00000     0.00000
  n-local   -13.72098   -14.79826   -13.00333    -0.65488     0.00005    -0.00004
  augment    -1.55775    -1.55773    -1.43593     0.00002     0.00000    -0.00000
  Kinetic   236.02705   244.16673   274.77014     6.43057    -0.00006    -0.00007
  Fock        0.00000     0.00000     0.00000     0.00000     0.00000     0.00000
  vdW        -0.08871    -0.08871    -0.09272    -0.00000     0.00000    -0.00000
  Total       0.12076     0.12076    -0.11626     0.00000    -0.00000     0.00000
  in kB       2.82541     2.82541    -2.72002     0.00001    -0.00000     0.00000

 VOLUME and BASIS-vectors are now :
  energy-cutoff  :      520.00
  volume of cell :       68.48
      direct lattice vectors                 reciprocal lattice vectors
     2.466303255 -0.000286638  0.000000000     0.405492344  0.234047608  0.000000000
    -1.232898690  2.136022597  0.000000000     0.000054414  0.468191249  0.000000000
     0.000000000  0.000000000 13.000000000     0.000000000  0.000000000  0.076923077

  length of vectors
     2.466303272  2.466299194 13.000000000     0.468190478  0.468191252  0.076923077

 FORCES acting on ions
    electron-ion (+dipol)            ewald-force                    non-local-force                 convergence-correction
   -.215E-03 -.860E-04 -.623E-11   0.268E-03 -.928E-04 -.214E-13   0.200E-15 0.523E-16 -.156E-20   0.884E-09 -.237E-09 -.216E-13
   0.443E-03 0.402E-03 -.549E-11   -.268E-03 0.928E-04 -.214E-13   -.952E-16 0.129E-17 -.238E-21   -.109E-08 -.463E-10 -.223E-13
   -.215E-03 -.860E-04 -.848E-11   0.268E-03 -.928E-04 0.214E-13   0.821E-16 0.207E-16 -.156E-20   0.884E-09 -.237E-09 0.356E-13
   0.443E-03 0.402E-03 -.310E-11   -.268E-03 0.928E-04 0.214E-13   -.205E-15 0.566E-16 -.193E-20   -.109E-08 -.463E-10 0.348E-13
   0.456E-03 0.632E-03 -.233E-10   -.637E-14 0.417E-14 0.122E-20   -.178E-16 0.131E-15 -.529E-20   -.406E-09 -.567E-09 0.265E-13

 POSITION                                       TOTAL-FORCE (eV/Angst)
      1.23307      2.13557      0.00000        -0.000000     -0.000000     -0.000000
      1.23290      0.71165      0.00000         0.000000      0.000000     -0.000000
      1.23307      2.13557      6.50000        -0.000000      0.000000      0.000000
      1.23290      0.71165      6.50000         0.000000      0.000000     -0.000000
    total drift:                                0.000456      0.000632     -0.000000

  FREE ENERGIE OF THE ION-ELECTRON SYSTEM (eV)
  free  energy   TOTEN  =       -37.27012951 eV

  energy  without entropy=      -37.26943353  energy(sigma->0) =      -37.26978152