 vasp.6.3.1 04May22 (build Aug 04 2022 13:02:54) complex

 executed on             LinuxIFC date 2024.11.24  12:52:29

 INCAR:
   ISTART = 1            (Read existing wavefunction
   ISPIN = 1            (Non-Spin polarised DFT)
   LREAL = .FALSE.       (Projection operators: automatic)
   ENCUT = 520        (Cut-off energy for plane wave basis set, in eV)
   PREC = A       (Precision level)
   LWAVE = .FALSE.        (Write WAVECAR or not)
   LCHARG = .FALSE.        (Write CHGCAR or not)
   ADDGRID = .TRUE.        (Increase grid
   KSPACING = 0.2000
   KGAMMA = .FALSE.
   IVDW = 12
   ISMEAR = 0            (Gaussian smearing
   SIGMA = 0.05         (Smearing value in eV
   NELM = 200           (Max electronic SCF steps)
   NELMIN = 6            (Min electronic SCF steps)
   EDIFF = 1E-08        (SCF energy convergence
   NSW = 0          (Max ionic steps)
   IBRION = -1            (Algorithm: 0-MD
   ISIF = 3           (Stress/relaxation: 2-Ions, 3-Shape/Ions/V, 4-Shape/Ions)
   EDIFFG = -1E-04        (Ionic convergence
   NCORE = 14

 POTCAR:    PAW_PBE C 08Apr2002
|           W    W    AA    RRRRR   N    N  II  N    N   GGGG   !!!           |
|           W    W   A  A   R    R  NN   N  II  NN   N  G    G  !!!           |
|           W    W  A    A  R    R  N N  N  II  N N  N  G       !!!           |
|           W WW W  AAAAAA  RRRRR   N  N N  II  N  N N  G  GGG   !            |
|           WW  WW  A    A  R   R   N   NN  II  N   NN  G    G                |
|           W    W  A    A  R    R  N    N  II  N    N   GGGG   !!!           |
|     For optimal performance we recommend to set                             |
|       NCORE = 2 up to number-of-cores-per-socket                            |
|     This setting can greatly improve the performance of VASP for DFT.       |
|     The default, NCORE=1 might be grossly inefficient on modern             |
|     multi-core architectures or massively parallel machines. Do your        |
|     Unfortunately you need to use the default for GW and RPA                |
|     calculations (for HF NCORE is supported but not extensively tested      |
|     yet).                                                                   |

 POTCAR:    PAW_PBE C 08Apr2002
   VRHFIN =C: s2p2

   TITEL  = PAW_PBE C 08Apr2002
   POMASS =   12.011; ZVAL   =    4.000    mass and valenz
   ENMAX  =  400.000; ENMIN  =  300.000 eV

  PAW_PBE C 08Apr2002                   :

 POSCAR: AA-stacked Graphene
  positions in direct lattice
  velocities in cartesian coordinates
 exchange correlation table for  LEXCH =        8
   RHO(1)=    0.500       N(1)  =     2000
   RHO(2)=  100.500       N(2)  =     4000

 ion  position               nearest neighbor table
   1  1.000  1.000  0.000-   2 1.42   2 1.42   2 1.42
   2  0.666  0.333  0.000-   1 1.42   1 1.42   1 1.42
   3  1.000  1.000  0.500-   4 1.42   4 1.42   4 1.42
   4  0.666  0.333  0.500-   3 1.42   3 1.42   3 1.42

  LATTYP: Found a hexagonal cell.
 ALAT       =     2.4663032719
 C/A-ratio  =     9.7311633460

  Lattice vectors:

 A1 = (   2.4663032553,  -0.0002866376,   0.0000000000)
 A2 = (  -1.2328986900,   2.1360225972,   0.0000000000)
 A3 = (   0.0000000000,   0.0000000000,  24.0000000000)

Analysis of symmetry for initial positions (statically):
 Subroutine PRICEL returns following result:

[...]

   2 primitive cells build up your supercell.

 Routine SETGRP: Setting up the symmetry group for a
 hexagonal supercell.

 Subroutine GETGRP returns: Found 24 space group operations
 (whereof  2 operations were pure point group operations)
 out of a pool of 24 trial point group operations.

The static configuration has the point symmetry C_1h.
 The point group associated with its full space group is D_6h.

Analysis of symmetry for dynamics (positions and initial velocities):
 Subroutine PRICEL returns following result:

  LATTYP: Found a hexagonal cell.
 ALAT       =     2.4663032719
 C/A-ratio  =     4.8655816730

  Lattice vectors:

 A1 = (   2.4663032553,  -0.0002866376,   0.0000000000)
 A2 = (  -1.2328986900,   2.1360225972,   0.0000000000)
 A3 = (   0.0000000000,   0.0000000000,  12.0000000000)

   2 primitive cells build up your supercell.

 Routine SETGRP: Setting up the symmetry group for a
 hexagonal supercell.

 Subroutine GETGRP returns: Found 24 space group operations
 (whereof  2 operations were pure point group operations)
 out of a pool of 24 trial point group operations.

The dynamic configuration has the point symmetry C_1h.
 The point group associated with its full space group is D_6h.

 Subroutine INISYM returns: Found 24 space group operations
 (whereof  2 operations are pure point group operations),
 and found     2 'primitive' translations

                                     Primitive cell

  volume of cell :      63.2127

  direct lattice vectors                    reciprocal lattice vectors
     2.466303255 -0.000286638  0.000000000     0.405492344  0.234047608  0.000000000
    -1.232898690  2.136022597  0.000000000     0.000054414  0.468191249  0.000000000
     0.000000000  0.000000000 12.000000000     0.000000000  0.000000000  0.083333333

  length of vectors
     2.466303272  2.466299194 12.000000000     0.468190478  0.468191252  0.083333333

  position of ions in fractional coordinates (direct lattice)
     0.999825905  0.999922181  0.000000000
     0.666491690  0.333254731  0.000000000

  ion indices of the primitive-cell ions
   primitive index   ion index
                 1           1
                 2           2

 KPOINTS: K-Spacing Value to Generate K-Mesh: 0.03

Automatic generation of k-mesh.
 Grid dimensions read from file:
 generate k-points for:   18   18    1

 Generating k-lattice:

  Cartesian coordinates                     Fractional coordinates (reciprocal lattice)
     0.022527352  0.013002645  0.000000000     0.055555556 -0.000000000  0.000000000
     0.000003023  0.026010625  0.000000000     0.000000000  0.055555556  0.000000000
     0.000000000  0.000000000  0.041666667     0.000000000  0.000000000  1.000000000

  Length of vectors
     0.026010582  0.026010625  0.041666667

  Shift w.r.t. Gamma in fractional coordinates (k-lattice)
     0.000000000  0.000000000  0.000000000

 Subroutine IBZKPT returns following result:

 Found     37 irreducible k-points:

 Following reciprocal coordinates:
            Coordinates               Weight
  0.000000  0.000000  0.000000      1.000000
  0.055556 -0.000000  0.000000      6.000000
  0.111111 -0.000000  0.000000      6.000000
  0.166667 -0.000000  0.000000      6.000000
  0.222222 -0.000000  0.000000      6.000000
  0.277778 -0.000000  0.000000      6.000000
  0.333333 -0.000000  0.000000      6.000000
  0.388889 -0.000000  0.000000      6.000000
  0.444444 -0.000000  0.000000      6.000000
  0.500000 -0.000000  0.000000      3.000000
  0.055556  0.055556  0.000000      6.000000
  0.111111  0.055556  0.000000     12.000000
  0.166667  0.055556  0.000000     12.000000
  0.222222  0.055556  0.000000     12.000000
  0.277778  0.055556  0.000000     12.000000
  0.333333  0.055556  0.000000     12.000000
  0.388889  0.055556  0.000000     12.000000
  0.444444  0.055556  0.000000     12.000000
  0.111111  0.111111  0.000000      6.000000
  0.166667  0.111111  0.000000     12.000000
  0.222222  0.111111  0.000000     12.000000
  0.277778  0.111111  0.000000     12.000000
  0.333333  0.111111  0.000000     12.000000
  0.388889  0.111111  0.000000     12.000000
  0.444444  0.111111  0.000000      6.000000
  0.166667  0.166667  0.000000      6.000000
  0.222222  0.166667  0.000000     12.000000
  0.277778  0.166667  0.000000     12.000000
  0.333333  0.166667  0.000000     12.000000
  0.388889  0.166667  0.000000     12.000000
  0.222222  0.222222  0.000000      6.000000
  0.277778  0.222222  0.000000     12.000000
  0.333333  0.222222  0.000000     12.000000
  0.388889  0.222222  0.000000      6.000000
  0.277778  0.277778  0.000000      6.000000
  0.333333  0.277778  0.000000     12.000000
  0.333333  0.333333  0.000000      2.000000

 Following cartesian coordinates:
            Coordinates               Weight
  0.000000  0.000000  0.000000      1.000000
  0.022527  0.013003  0.000000      6.000000
  0.045055  0.026005  0.000000      6.000000
  0.067582  0.039008  0.000000      6.000000
  0.090109  0.052011  0.000000      6.000000
  0.112637  0.065013  0.000000      6.000000
  0.135164  0.078016  0.000000      6.000000
  0.157691  0.091019  0.000000      6.000000
  0.180219  0.104021  0.000000      6.000000
  0.202746  0.117024  0.000000      3.000000
  0.022530  0.039013  0.000000      6.000000
  0.045058  0.052016  0.000000     12.000000
  0.067585  0.065019  0.000000     12.000000
  0.090112  0.078021  0.000000     12.000000
  0.112640  0.091024  0.000000     12.000000
  0.135167  0.104026  0.000000     12.000000
  0.157694  0.117029  0.000000     12.000000
  0.180222  0.130032  0.000000     12.000000
  0.045061  0.078027  0.000000      6.000000
  0.067588  0.091029  0.000000     12.000000
  0.090115  0.104032  0.000000     12.000000
  0.112643  0.117034  0.000000     12.000000
  0.135170  0.130037  0.000000     12.000000
  0.157698  0.143040  0.000000     12.000000
  0.180225  0.156042  0.000000      6.000000
  0.067591  0.117040  0.000000      6.000000
  0.090118  0.130042  0.000000     12.000000
  0.112646  0.143045  0.000000     12.000000
  0.135173  0.156048  0.000000     12.000000
  0.157701  0.169050  0.000000     12.000000
  0.090122  0.156053  0.000000      6.000000
  0.112649  0.169056  0.000000     12.000000
  0.135176  0.182058  0.000000     12.000000
  0.157704  0.195061  0.000000      6.000000
  0.112652  0.195066  0.000000      6.000000
  0.135179  0.208069  0.000000     12.000000
  0.135182  0.234080  0.000000      2.000000

 SYSTEM =  unknown system
 POSCAR =  AA-stacked Graphene

 Startparameter for this run:
   NWRITE =      2    write-flag & timer
   PREC   = a         normal or accurate (medium, high low for compatibility)
   ISTART =      0    job   : 0-new  1-cont  2-samecut
   ICHARG =      2    charge: 1-file 2-atom 10-const
   ISPIN  =      1    spin polarized calculation?
   LNONCOLLINEAR =      F non collinear calculations
   LSORBIT =      F    spin-orbit coupling
   INIWAV =      1    electr: 0-lowe 1-rand  2-diag
   LASPH  =      F    aspherical Exc in radial PAW
 Electronic Relaxation 1
   ENCUT  =  520.0 eV  38.22 Ry    6.18 a.u.   4.59  4.59 44.62*2*pi/ulx,y,z
   ENINI  =  520.0     initial cutoff
   ENAUG  =  644.9 eV  augmentation charge cutoff
   NELM   =    200;   NELMIN=  6; NELMDL=  0     # of ELM steps
   EDIFF  = 0.1E-07   stopping-criterion for ELM
   LREAL  =      F    real-space projection
   NLSPLINE    = F    spline interpolate recip. space projectors
   LCOMPAT=      F    compatible to vasp.4.4
   GGA_COMPAT  = T    GGA compatible to vasp.4.4-vasp.4.6
   LMAXPAW     = -100 max onsite density
   LMAXMIX     =    2 max onsite mixed and CHGCAR
   VOSKOWN=      0    Vosko Wilk Nusair interpolation
   ROPT   =    0.00000
 Ionic relaxation
   EDIFFG = -.1E-03   stopping-criterion for IOM
   NSW    =      0    number of steps for IOM
[...]
 charge density and potential will be updated during run
 non-spin polarized calculation
 Variant of blocked Davidson
 Davidson routine will perform the subspace rotation
 perform sub-space diagonalisation
    after iterative eigenvector-optimisation
 modified Broyden-mixing scheme, WC =      100.0
 initial mixing is a Kerker type mixing with AMIX =  0.4000 and BMIX =      1.0000
 Hartree-type preconditioning will be used
 using additional bands            4
 reciprocal scheme for non local part
 use partial core corrections
 calculate Harris-corrections to forces
   (improved forces if not selfconsistent)
 use gradient corrections
 use of overlap-Matrix (Vanderbilt PP)
 Gauss-broadening in eV      SIGMA  =   0.05

  energy-cutoff  :      520.00
  volume of cell :      126.43
      direct lattice vectors                 reciprocal lattice vectors
     2.466303255 -0.000286638  0.000000000     0.405492344  0.234047608  0.000000000
    -1.232898690  2.136022597  0.000000000     0.000054414  0.468191249  0.000000000
     0.000000000  0.000000000 24.000000000     0.000000000  0.000000000  0.041666667

[...]

 k-points in units of 2pi/SCALE and weight: K-Spacing Value to Generate K-Mesh: 0.03
   0.00000000  0.00000000  0.00000000       0.003
   0.02252735  0.01300264  0.00000000       0.019
   0.04505470  0.02600529  0.00000000       0.019
   0.06758206  0.03900793  0.00000000       0.019
   0.09010941  0.05201058  0.00000000       0.019
   0.11263676  0.06501322  0.00000000       0.019
   0.13516411  0.07801587  0.00000000       0.019
   0.15769147  0.09101851  0.00000000       0.019
   0.18021882  0.10402116  0.00000000       0.019
   0.20274617  0.11702380  0.00000000       0.009
   0.02253038  0.03901327  0.00000000       0.019
   0.04505773  0.05201591  0.00000000       0.037
   0.06758508  0.06501856  0.00000000       0.037
   0.09011243  0.07802120  0.00000000       0.037
   0.11263979  0.09102385  0.00000000       0.037
   0.13516714  0.10402649  0.00000000       0.037
   0.15769449  0.11702914  0.00000000       0.037
   0.18022184  0.13003178  0.00000000       0.037
   0.04506075  0.07802654  0.00000000       0.019
   0.06758810  0.09102918  0.00000000       0.037
   0.09011546  0.10403183  0.00000000       0.037
   0.11264281  0.11703447  0.00000000       0.037
   0.13517016  0.13003712  0.00000000       0.037
   0.15769751  0.14303976  0.00000000       0.037
   0.18022487  0.15604241  0.00000000       0.019
   0.06759113  0.11703981  0.00000000       0.019
   0.09011848  0.13004245  0.00000000       0.037
   0.11264583  0.14304510  0.00000000       0.037
   0.13517318  0.15604774  0.00000000       0.037
   0.15770054  0.16905039  0.00000000       0.037
   0.09012150  0.15605308  0.00000000       0.019
   0.11264885  0.16905572  0.00000000       0.037
   0.13517621  0.18205837  0.00000000       0.037
   0.15770356  0.19506101  0.00000000       0.019
   0.11265188  0.19506635  0.00000000       0.019
   0.13517923  0.20806899  0.00000000       0.037
   0.13518225  0.23407962  0.00000000       0.006

 k-points in reciprocal lattice and weights: K-Spacing Value to Generate K-Mesh: 0.03
   0.00000000  0.00000000  0.00000000       0.003
   0.05555556 -0.00000000  0.00000000       0.019
   0.11111111 -0.00000000  0.00000000       0.019
   0.16666667 -0.00000000  0.00000000       0.019
   0.22222222 -0.00000000  0.00000000       0.019
   0.27777778 -0.00000000  0.00000000       0.019
   0.33333333 -0.00000000  0.00000000       0.019
   0.38888889 -0.00000000  0.00000000       0.019
   0.44444444 -0.00000000  0.00000000       0.019
   0.50000000 -0.00000000  0.00000000       0.009
   0.05555556  0.05555556  0.00000000       0.019
   0.11111111  0.05555556  0.00000000       0.037
   0.16666667  0.05555556  0.00000000       0.037
   0.22222222  0.05555556  0.00000000       0.037
   0.27777778  0.05555556  0.00000000       0.037
   0.33333333  0.05555556  0.00000000       0.037
   0.38888889  0.05555556  0.00000000       0.037
   0.44444444  0.05555556  0.00000000       0.037
   0.11111111  0.11111111  0.00000000       0.019
   0.16666667  0.11111111  0.00000000       0.037
   0.22222222  0.11111111  0.00000000       0.037
   0.27777778  0.11111111  0.00000000       0.037
   0.33333333  0.11111111  0.00000000       0.037
   0.38888889  0.11111111  0.00000000       0.037
   0.44444444  0.11111111  0.00000000       0.019
   0.16666667  0.16666667  0.00000000       0.019
   0.22222222  0.16666667  0.00000000       0.037
   0.27777778  0.16666667  0.00000000       0.037
   0.33333333  0.16666667  0.00000000       0.037
   0.38888889  0.16666667  0.00000000       0.037
   0.22222222  0.22222222  0.00000000       0.019
   0.27777778  0.22222222  0.00000000       0.037
   0.33333333  0.22222222  0.00000000       0.037
   0.38888889  0.22222222  0.00000000       0.019
   0.27777778  0.27777778  0.00000000       0.019
   0.33333333  0.27777778  0.00000000       0.037
   0.33333333  0.33333333  0.00000000       0.006

 position of ions in fractional coordinates (direct lattice)
   0.99982591  0.99992218  0.00000000
   0.66649169  0.33325473  0.00000000
   0.99982591  0.99992218  0.50000000
   0.66649169  0.33325473  0.50000000

 position of ions in cartesian coordinates  (Angst):
   1.23307114  2.13556979  0.00000000
   1.23290130  0.71164859  0.00000000
   1.23307114  2.13556979 12.00000000
   1.23290130  0.71164859 12.00000000

 k-point   1 :   0.0000 0.0000 0.0000  plane waves:    3419
 k-point   2 :   0.0556-0.0000 0.0000  plane waves:    3416
 k-point   3 :   0.1111-0.0000 0.0000  plane waves:    3448
 k-point   4 :   0.1667-0.0000 0.0000  plane waves:    3448
 k-point   5 :   0.2222-0.0000 0.0000  plane waves:    3442
 k-point   6 :   0.2778-0.0000 0.0000  plane waves:    3444
 k-point   7 :   0.3333-0.0000 0.0000  plane waves:    3428
 k-point   8 :   0.3889-0.0000 0.0000  plane waves:    3388
 k-point   9 :   0.4444-0.0000 0.0000  plane waves:    3390
 k-point  10 :   0.5000-0.0000 0.0000  plane waves:    3388
 k-point  11 :   0.0556 0.0556 0.0000  plane waves:    3435
 k-point  12 :   0.1111 0.0556 0.0000  plane waves:    3433
 k-point  13 :   0.1667 0.0556 0.0000  plane waves:    3442
 k-point  14 :   0.2222 0.0556 0.0000  plane waves:    3442
 k-point  15 :   0.2778 0.0556 0.0000  plane waves:    3430
 k-point  16 :   0.3333 0.0556 0.0000  plane waves:    3400
 k-point  17 :   0.3889 0.0556 0.0000  plane waves:    3379
 k-point  18 :   0.4444 0.0556 0.0000  plane waves:    3390
 k-point  19 :   0.1111 0.1111 0.0000  plane waves:    3437
 k-point  20 :   0.1667 0.1111 0.0000  plane waves:    3429
 k-point  21 :   0.2222 0.1111 0.0000  plane waves:    3428
 k-point  22 :   0.2778 0.1111 0.0000  plane waves:    3410
 k-point  23 :   0.3333 0.1111 0.0000  plane waves:    3392
 k-point  24 :   0.3889 0.1111 0.0000  plane waves:    3387
 k-point  25 :   0.4444 0.1111 0.0000  plane waves:    3390
 k-point  26 :   0.1667 0.1667 0.0000  plane waves:    3431
 k-point  27 :   0.2222 0.1667 0.0000  plane waves:    3405
 k-point  28 :   0.2778 0.1667 0.0000  plane waves:    3380
 k-point  29 :   0.3333 0.1667 0.0000  plane waves:    3385
 k-point  30 :   0.3889 0.1667 0.0000  plane waves:    3385
 k-point  31 :   0.2222 0.2222 0.0000  plane waves:    3363
 k-point  32 :   0.2778 0.2222 0.0000  plane waves:    3377
 k-point  33 :   0.3333 0.2222 0.0000  plane waves:    3368
 k-point  34 :   0.3889 0.2222 0.0000  plane waves:    3368
 k-point  35 :   0.2778 0.2778 0.0000  plane waves:    3375
 k-point  36 :   0.3333 0.2778 0.0000  plane waves:    3358
 k-point  37 :   0.3333 0.3333 0.0000  plane waves:    3366

 maximum and minimum number of plane-waves per node :       262      229

 maximum number of plane-waves:      3448
 maximum index in each direction:
   IXMAX=    4   IYMAX=    4   IZMAX=   44
   IXMIN=   -5   IYMIN=   -4   IZMIN=  -44

 parallel 3D FFT for wavefunctions:
    minimum data exchange during FFTs selected (reduces bandwidth)
 parallel 3D FFT for charge:
    minimum data exchange during FFTs selected (reduces bandwidth)

 Broyden mixing: mesh for mixing (old mesh)
   NGX =  9   NGY =  9   NGZ = 89
  (NGX  = 36   NGY  = 36   NGZ  =360)
  gives a total of   7209 points

 initial charge density was supplied:
 charge density of overlapping atoms calculated
 number of electron      16.0000000 magnetization
 keeping initial charge density in first step

 Maximum index for augmentation-charges         2072 (set IRDMAX)

 First call to EWALD:  gamma=   0.353
 Maximum number of real-space cells 6x 6x 1
 Maximum number of reciprocal cells 2x 2x11

--------------------------------------- Iteration      1(   1)  ---------------------------------------

 eigenvalue-minimisations  :   896
 total energy-change (2. order) : 0.1113699E+03  (-0.6236226E+03)
 number of electron      16.0000000 magnetization
 augmentation part       16.0000000 magnetization

 Free energy of the ion-electron system (eV)
  alpha Z        PSCENC =        10.39622721
  Ewald energy   TEWEN  =      1123.12179173
  -Hartree energ DENC   =     -1573.21376675
  -exchange      EXHF   =         0.00000000
  -V(xc)+E(xc)   XCENC  =        52.71629793
  PAW double counting   =       434.08818552     -436.36580876
  entropy T*S    EENTRO =        -0.00153976
  eigenvalues    EBANDS =       -87.96701705
  atomic energy  EATOM  =       588.59557325
  Solvation  Ediel_sol  =         0.00000000
  free energy    TOTEN  =       111.36994334 eV

  energy without entropy =      111.37148310  energy(sigma->0) =      111.37071322

[...]

 eigenvalue-minimisations  :  1464
 total energy-change (2. order) :-0.1374049E+03  (-0.1227098E+03)
 number of electron      16.0000000 magnetization
 augmentation part       16.0000000 magnetization

[...]

 Broyden mixing:
  rms(total) = 0.89174E+00    rms(broyden)= 0.89163E+00
  rms(prec ) = 0.93515E+00
  weight for this iteration     100.00

[...]

 eigenvalues of (default mixing * dielectric matrix)
  average eigenvalue GAMMA=   2.2098
  2.2098

[...]

 eigenvalue-minimisations  :   996
 total energy-change (2. order) : 0.7042341E-02  (-0.5805030E-03)
 number of electron      16.0000001 magnetization
 augmentation part        0.3843528 magnetization

[...]

 Broyden mixing:
  rms(total) = 0.17420E-04    rms(broyden)= 0.17391E-04
  rms(prec ) = 0.17547E-04
  weight for this iteration     100.00

[...]

 Broyden mixing:
  rms(total) = 0.18965E-05    rms(broyden)= 0.16120E-05
  rms(prec ) = 0.17532E-05
  weight for this iteration     100.00
  WARNING: grid for Broyden might be to small

 eigenvalues of (default mixing * dielectric matrix)
  average eigenvalue GAMMA=   2.6204
  9.4484  4.7281  3.0708  2.8503  2.4182  2.4182  2.2261  2.0027  1.0184  0.9862
  0.9862  0.9555  0.9555

[...]

--------------------------------------- Iteration      1(  19)  ---------------------------------------

 eigenvalue-minimisations  :   780
 total energy-change (2. order) :-0.5520633E-08  (-0.5374223E-10)
 number of electron      16.0000001 magnetization
 augmentation part        0.3839537 magnetization

 Free energy of the ion-electron system (eV)
  alpha Z        PSCENC =        10.39622721
  Ewald energy   TEWEN  =      1123.12179173
  -Hartree energ DENC   =     -1637.22574383
  -exchange      EXHF   =         0.00000000
  -V(xc)+E(xc)   XCENC  =        55.08272031
  PAW double counting   =      1668.80582286    -1671.54157954
  entropy T*S    EENTRO =        -0.00069653
  eigenvalues    EBANDS =      -174.12816178
  atomic energy  EATOM  =       588.59557325
  Solvation  Ediel_sol  =         0.00000000
  free energy    TOTEN  =       -36.89404631 eV

  energy without entropy =      -36.89334978  energy(sigma->0) =      -36.89369804

 average (electrostatic) potential at core
  the test charge radii are     0.6991
  (the norm of the test charge is              1.0000)
       1 -57.1846       2 -57.1846       3 -57.1846       4 -57.1846

 E-fermi :  -1.7498     XC(G=0):  -3.5709     alpha+bet : -3.1710

 Fermi energy:        -1.7497729436

 k-point     1 :       0.0000    0.0000    0.0000
  band No.  band energies     occupation
      1     -21.2592      2.00000
      2     -21.2591      2.00000
      3      -9.3620      2.00000
      4      -9.3620      2.00000
      5      -4.7781      2.00000
      6      -4.7781      2.00000
      7      -4.7780      2.00000
      8      -4.7780      2.00000
      9       1.4649      0.00000
     10       1.5898      0.00000
     11       2.1698      0.00000
     12       2.6062      0.00000

[...]

 k-point    37 :       0.3333    0.3333    0.0000
  band No.  band energies     occupation
      1     -14.3371      2.00000
      2     -14.3371      2.00000
      3     -14.3370      2.00000
      4     -14.3370      2.00000
      5     -12.2907      2.00000
      6     -12.2907      2.00000
      7      -1.7498      1.00062
      8      -1.7498      1.00013
      9      -1.7498      0.99987
     10      -1.7497      0.99938
     11       8.8681      0.00000
     12       8.8689      0.00000

 soft charge-density along one line, spin component           1
         0         1         2         3         4         5         6         7         8         9
 total charge-density along one line

------------------------ aborting loop because EDIFF is reached ----------------------------------------

         DFTD3 V3.0 Rev 1
 IVDW         = 12
 DF pbe
 parameters
 VDW_S6       =    1.0000
 VDW_S8       =    0.7875
 VDW_A1       =    0.4289
 VDW_A2       =    4.4407
 k1-k3        =   16.0000    1.3333   -4.0000
 VDW_RADIUS   =   50.2022 A
 VDW_CNRADIUS =   21.1671 A
 Edisp (eV)   -0.35595

 E6    (eV) :    -0.2450
 E8    (eV) :    -0.1109
 % E8        : 31.16

  FORCE on cell =-STRESS in cart. coord.  units (eV):
  Direction    XX          YY          ZZ          XY          YZ          ZX
  Alpha Z    10.39623    10.39623    10.39623
  Ewald    1660.80200  1660.80078 -2198.48110     0.00023     0.00000     0.00000
  Hartree  1614.57874  1614.57873 -1591.93186     0.00001    -0.00000    -0.00000
  E(xc)     -59.41322   -59.41322   -61.64002     0.00000     0.00000     0.00000
  Local   -3450.43456 -3450.43383  3581.30165    -0.00032     0.00000     0.00000
  n-local   -13.72116   -14.79844   -13.00385    -0.65486    -0.00000    -0.00000
  augment    -1.55777    -1.55775    -1.43594     0.00002    -0.00000    -0.00000
  Kinetic   236.02708   244.16673   274.77384     6.43057     0.00000     0.00000
  Fock        0.00000     0.00000     0.00000     0.00000     0.00000     0.00000
  vdW        -0.08696    -0.08696    -0.00733    -0.00000    -0.00000    -0.00000
  Total       0.12132     0.12132    -0.02840     0.00000     0.00000    -0.00000
  in kB       1.53742     1.53742    -0.35991     0.00000     0.00000    -0.00000

 VOLUME and BASIS-vectors are now :
  energy-cutoff  :      520.00
  volume of cell :      126.43
      direct lattice vectors                 reciprocal lattice vectors
     2.466303255 -0.000286638  0.000000000     0.405492344  0.234047608  0.000000000
    -1.232898690  2.136022597  0.000000000     0.000054414  0.468191249  0.000000000
     0.000000000  0.000000000 24.000000000     0.000000000  0.000000000  0.041666667

  length of vectors
     2.466303272  2.466299194 24.000000000     0.468190478  0.468191252  0.041666667

 FORCES acting on ions
    electron-ion (+dipol)            ewald-force                    non-local-force                 convergence-correction
   -.215E-03 -.860E-04 0.361E-10   0.268E-03 -.928E-04 -.214E-13   -.415E-16 0.453E-17 0.476E-23   -.166E-10 -.403E-11 0.456E-12
   0.443E-03 0.402E-03 0.357E-10   -.268E-03 0.928E-04 -.214E-13   0.362E-16 -.231E-16 -.558E-23   0.168E-10 0.433E-11 0.458E-12
   -.215E-03 -.860E-04 0.333E-10   0.268E-03 -.928E-04 0.214E-13   -.126E-15 0.282E-16 0.165E-23   -.166E-10 -.403E-11 -.778E-13
   0.443E-03 0.402E-03 0.385E-10   -.268E-03 0.928E-04 0.214E-13   0.757E-16 -.379E-16 0.620E-23   0.168E-10 0.433E-11 -.759E-13
   0.456E-03 0.632E-03 0.144E-09   0.262E-14 -.106E-13 0.000E+00   -.552E-16 -.283E-16 0.703E-23   0.298E-12 0.599E-12 0.761E-12

 POSITION                                       TOTAL-FORCE (eV/Angst)
      1.23307      2.13557      0.00000         0.000000      0.000000     -0.000000
      1.23290      0.71165      0.00000        -0.000000     -0.000000      0.000000
      1.23307      2.13557     12.00000         0.000000      0.000000      0.000000
      1.23290      0.71165     12.00000        -0.000000     -0.000000     -0.000000
    total drift:                                0.000456      0.000632      0.000000

  FREE ENERGIE OF THE ION-ELECTRON SYSTEM (eV)
  free  energy   TOTEN  =       -37.24999263 eV

  energy  without entropy=      -37.24929610  energy(sigma->0) =      -37.24964437