 vasp.6.3.1 04May22 (build Aug 04 2022 13:02:54) complex

 executed on             LinuxIFC date 2024.12.04  11:18:31

 INCAR:
   ISTART = 1            (Read existing wavefunction
   ISPIN = 1            (Non-Spin polarised DFT)
   LREAL = .FALSE.       (Projection operators: automatic)
   ENCUT = 520        (Cut-off energy for plane wave basis set, in eV)
   PREC = A       (Precision level)
   LWAVE = .FALSE.        (Write WAVECAR or not)
   LCHARG = .FALSE.        (Write CHGCAR or not)
   ADDGRID = .TRUE.        (Increase grid
   KSPACING = 0.2000
   KGAMMA = .FALSE.
   IVDW = 12
   ISMEAR = 0            (Gaussian smearing
   SIGMA = 0.05         (Smearing value in eV
   NELM = 200           (Max electronic SCF steps)
   NELMIN = 6            (Min electronic SCF steps)
   EDIFF = 1E-08        (SCF energy convergence
   NSW = 0          (Max ionic steps)
   IBRION = -1            (Algorithm: 0-MD
   ISIF = 3           (Stress/relaxation: 2-Ions, 3-Shape/Ions/V, 4-Shape/Ions)
   EDIFFG = -1E-04        (Ionic convergence
   ISYM = 0
   SYMPREC = 1E-08
   NCORE = 14

 POTCAR:    PAW_PBE C 08Apr2002
|           W    W    AA    RRRRR   N    N  II  N    N   GGGG   !!!           |
|           W    W   A  A   R    R  NN   N  II  NN   N  G    G  !!!           |
|           W    W  A    A  R    R  N N  N  II  N N  N  G       !!!           |
|           W WW W  AAAAAA  RRRRR   N  N N  II  N  N N  G  GGG   !            |
|           WW  WW  A    A  R   R   N   NN  II  N   NN  G    G                |
|           W    W  A    A  R    R  N    N  II  N    N   GGGG   !!!           |
|     For optimal performance we recommend to set                             |
|       NCORE = 2 up to number-of-cores-per-socket                            |
|     This setting can greatly improve the performance of VASP for DFT.       |
|     The default, NCORE=1 might be grossly inefficient on modern             |
|     multi-core architectures or massively parallel machines. Do your        |
|     Unfortunately you need to use the default for GW and RPA                |
|     calculations (for HF NCORE is supported but not extensively tested      |
|     yet).                                                                   |

 POTCAR:    PAW_PBE C 08Apr2002
   VRHFIN =C: s2p2

   TITEL  = PAW_PBE C 08Apr2002
   POMASS =   12.011; ZVAL   =    4.000    mass and valenz
   ENMAX  =  400.000; ENMIN  =  300.000 eV

  PAW_PBE C 08Apr2002                   :

 POSCAR: Graphene
  positions in direct lattice
 exchange correlation table for  LEXCH =        8
   RHO(1)=    0.500       N(1)  =     2000
   RHO(2)=  100.500       N(2)  =     4000

 ion  position               nearest neighbor table
   1  0.000  0.000  0.500-
   2  0.667  0.333  0.500-

IMPORTANT INFORMATION: All symmetrisations will be switched off!
NOSYMM: (Re-)initialisation of all symmetry stuff for point group C_1.

                                     Primitive cell

  volume of cell :     276.5526

  direct lattice vectors                    reciprocal lattice vectors
     4.613991532  0.000000000  0.000000000     0.216732084  0.125126711  0.000000000
    -2.306941376  3.995855142  0.000000000     0.000000000  0.250259322  0.000000000
     0.000000000  0.000000000 15.000000000     0.000000000  0.000000000  0.066666667

  length of vectors
     4.613991532  4.613982751 15.000000000     0.250258846  0.250259322  0.066666667

  position of ions in fractional coordinates (direct lattice)
     0.000000000  0.000000000  0.500000000
     0.666668846  0.333334637  0.500000000

  ion indices of the primitive-cell ions
   primitive index   ion index
                 1           1
                 2           2

 KPOINTS: K-Spacing Value to Generate K-Mesh: 0.03

Automatic generation of k-mesh.
 Grid dimensions read from file:
 generate k-points for:    9    9    1

 Generating k-lattice:

  Cartesian coordinates                     Fractional coordinates (reciprocal lattice)
     0.024081343  0.013902968  0.000000000     0.111111111  0.000000000  0.000000000
     0.000000000  0.027806591  0.000000000     0.000000000  0.111111111  0.000000000
     0.000000000  0.000000000  0.066666667     0.000000000  0.000000000  1.000000000

  Length of vectors
     0.027806538  0.027806591  0.066666667

  Shift w.r.t. Gamma in fractional coordinates (k-lattice)
     0.000000000  0.000000000  0.000000000

 Subroutine IBZKPT returns following result:

 Found     41 irreducible k-points:

 Following reciprocal coordinates:
            Coordinates               Weight
  0.000000  0.000000  0.000000      1.000000
  0.111111  0.000000  0.000000      2.000000
  0.222222  0.000000  0.000000      2.000000
  0.333333  0.000000  0.000000      2.000000
  0.444444  0.000000  0.000000      2.000000
  0.000000  0.111111  0.000000      2.000000
  0.111111  0.111111  0.000000      2.000000
  0.222222  0.111111  0.000000      2.000000
  0.333333  0.111111  0.000000      2.000000
  0.444444  0.111111  0.000000      2.000000
 -0.444444  0.111111  0.000000      2.000000
 -0.333333  0.111111  0.000000      2.000000
 -0.222222  0.111111  0.000000      2.000000
 -0.111111  0.111111  0.000000      2.000000
  0.000000  0.222222  0.000000      2.000000
  0.111111  0.222222  0.000000      2.000000
  0.222222  0.222222  0.000000      2.000000
  0.333333  0.222222  0.000000      2.000000
  0.444444  0.222222  0.000000      2.000000
 -0.444444  0.222222  0.000000      2.000000
 -0.333333  0.222222  0.000000      2.000000
 -0.222222  0.222222  0.000000      2.000000
 -0.111111  0.222222  0.000000      2.000000
  0.000000  0.333333  0.000000      2.000000
  0.111111  0.333333  0.000000      2.000000
  0.222222  0.333333  0.000000      2.000000
  0.333333  0.333333  0.000000      2.000000
  0.444444  0.333333  0.000000      2.000000
 -0.444444  0.333333  0.000000      2.000000
 -0.333333  0.333333  0.000000      2.000000
 -0.222222  0.333333  0.000000      2.000000
 -0.111111  0.333333  0.000000      2.000000
  0.000000  0.444444  0.000000      2.000000
  0.111111  0.444444  0.000000      2.000000
  0.222222  0.444444  0.000000      2.000000
  0.333333  0.444444  0.000000      2.000000
  0.444444  0.444444  0.000000      2.000000
 -0.444444  0.444444  0.000000      2.000000
 -0.333333  0.444444  0.000000      2.000000
 -0.222222  0.444444  0.000000      2.000000
 -0.111111  0.444444  0.000000      2.000000

 Following cartesian coordinates:
            Coordinates               Weight
  0.000000  0.000000  0.000000      1.000000
  0.024081  0.013903  0.000000      2.000000
  0.048163  0.027806  0.000000      2.000000
  0.072244  0.041709  0.000000      2.000000
  0.096325  0.055612  0.000000      2.000000
  0.000000  0.027807  0.000000      2.000000
  0.024081  0.041710  0.000000      2.000000
  0.048163  0.055613  0.000000      2.000000
  0.072244  0.069515  0.000000      2.000000
  0.096325  0.083418  0.000000      2.000000
 -0.096325 -0.027805  0.000000      2.000000
 -0.072244 -0.013902  0.000000      2.000000
 -0.048163  0.000001  0.000000      2.000000
 -0.024081  0.013904  0.000000      2.000000
  0.000000  0.055613  0.000000      2.000000
  0.024081  0.069516  0.000000      2.000000
  0.048163  0.083419  0.000000      2.000000
  0.072244  0.097322  0.000000      2.000000
  0.096325  0.111225  0.000000      2.000000
 -0.096325  0.000001  0.000000      2.000000
 -0.072244  0.013904  0.000000      2.000000
 -0.048163  0.027807  0.000000      2.000000
 -0.024081  0.041710  0.000000      2.000000
  0.000000  0.083420  0.000000      2.000000
  0.024081  0.097323  0.000000      2.000000
  0.048163  0.111226  0.000000      2.000000
  0.072244  0.125129  0.000000      2.000000
  0.096325  0.139032  0.000000      2.000000
 -0.096325  0.027808  0.000000      2.000000
 -0.072244  0.041711  0.000000      2.000000
 -0.048163  0.055614  0.000000      2.000000
 -0.024081  0.069517  0.000000      2.000000
  0.000000  0.111226  0.000000      2.000000
  0.024081  0.125129  0.000000      2.000000
  0.048163  0.139032  0.000000      2.000000
  0.072244  0.152935  0.000000      2.000000
  0.096325  0.166838  0.000000      2.000000
 -0.096325  0.055614  0.000000      2.000000
 -0.072244  0.069517  0.000000      2.000000
 -0.048163  0.083420  0.000000      2.000000
 -0.024081  0.097323  0.000000      2.000000

 SYSTEM =  unknown system
 POSCAR =  Graphene

 Startparameter for this run:
   NWRITE =      2    write-flag & timer
   PREC   = a         normal or accurate (medium, high low for compatibility)
   ISTART =      0    job   : 0-new  1-cont  2-samecut
   ICHARG =      2    charge: 1-file 2-atom 10-const
   ISPIN  =      1    spin polarized calculation?
   LNONCOLLINEAR =      F non collinear calculations
   LSORBIT =      F    spin-orbit coupling
   INIWAV =      1    electr: 0-lowe 1-rand  2-diag
   LASPH  =      F    aspherical Exc in radial PAW
 Electronic Relaxation 1
   ENCUT  =  520.0 eV  38.22 Ry    6.18 a.u.   8.58  8.58 27.89*2*pi/ulx,y,z
   ENINI  =  520.0     initial cutoff
   ENAUG  =  644.9 eV  augmentation charge cutoff
   NELM   =    200;   NELMIN=  6; NELMDL=  0     # of ELM steps
   EDIFF  = 0.1E-07   stopping-criterion for ELM
   LREAL  =      F    real-space projection
   NLSPLINE    = F    spline interpolate recip. space projectors
   LCOMPAT=      F    compatible to vasp.4.4
   GGA_COMPAT  = T    GGA compatible to vasp.4.4-vasp.4.6
   LMAXPAW     = -100 max onsite density
   LMAXMIX     =    2 max onsite mixed and CHGCAR
   VOSKOWN=      0    Vosko Wilk Nusair interpolation
   ROPT   =    0.00000
 Ionic relaxation
   EDIFFG = -.1E-03   stopping-criterion for IOM
   NSW    =      0    number of steps for IOM
   NBLOCK =      1;   KBLOCK =      1    inner block; outer block
   IBRION =     -1    ionic relax: 0-MD 1-quasi-New 2-CG
   NFREE  =      0    steps in history (QN), initial steepest desc. (CG)
   ISIF   =      3    stress and relaxation
   IWAVPR =     10    prediction:  0-non 1-charg 2-wave 3-comb
   ISYM   =      0    0-nonsym 1-usesym 2-fastsym
   LCORR  =      T    Harris-Foulkes like correction to forces

   POTIM  = 0.5000    time-step for ionic-motion
   TEIN   =    0.0    initial temperature
   TEBEG  =    0.0;   TEEND  =   0.0 temperature during run
   SMASS  =  -3.00    Nose mass-parameter (am)
   estimated Nose-frequenzy (Omega)   =  0.10E-29 period in steps = 0.13E+47 mass=  -0.487E-27a.u.
   SCALEE = 1.0000    scale energy and forces
   NPACO  =    256;   APACO  = 10.0  distance and # of slots for P.C.
   PSTRESS=    0.0 pullay stress

  Mass of Ions in am
   POMASS =  12.01
  Ionic Valenz
   ZVAL   =   4.00
  Atomic Wigner-Seitz radii
  virtual crystal weights
   VCA    =   1.00
   NELECT =       8.0000    total number of electrons
   NUPDOWN=      -1.0000    fix difference up-down

 DOS related values:
   EMIN   =  10.00;   EMAX   =-10.00  energy-range for DOS
   EFERMI =   0.00
   ISMEAR =     0;   SIGMA  =   0.05  broadening in eV -4-tet -1-fermi 0-gaus

 Electronic relaxation 2 (details)
   IALGO  =     38    algorithm
   LDIAG  =      T    sub-space diagonalisation (order eigenvalues)
   LSUBROT=      F    optimize rotation matrix (better conditioning)
[...]
   KPOINTS_OPT_MODE=     1    mode for optional k-point grid

 Orbital magnetization related:
   ORBITALMAG=     F  switch on orbital magnetization
   LCHIMAG   =     F  perturbation theory with respect to B field
   DQ        =  0.001000  dq finite difference perturbation B field
   LLRAUG    =     F  two centre corrections for induced B field

 Static calculation
 charge density and potential will be updated during run
 non-spin polarized calculation
 Variant of blocked Davidson
 Davidson routine will perform the subspace rotation
 perform sub-space diagonalisation
    after iterative eigenvector-optimisation
 modified Broyden-mixing scheme, WC =      100.0
 initial mixing is a Kerker type mixing with AMIX =  0.4000 and BMIX =      1.0000
 Hartree-type preconditioning will be used
 using additional bands            4
 reciprocal scheme for non local part
 use partial core corrections
 calculate Harris-corrections to forces
   (improved forces if not selfconsistent)
 use gradient corrections
 use of overlap-Matrix (Vanderbilt PP)
 Gauss-broadening in eV      SIGMA  =   0.05

  energy-cutoff  :      520.00
  volume of cell :      276.55
      direct lattice vectors                 reciprocal lattice vectors
     4.613991532  0.000000000  0.000000000     0.216732084  0.125126711  0.000000000
    -2.306941376  3.995855142  0.000000000     0.000000000  0.250259322  0.000000000
     0.000000000  0.000000000 15.000000000     0.000000000  0.000000000  0.066666667

[...]

 k-points in units of 2pi/SCALE and weight: K-Spacing Value to Generate K-Mesh: 0.03
   0.00000000  0.00000000  0.00000000       0.012
   0.02408134  0.01390297  0.00000000       0.025
   0.04816269  0.02780594  0.00000000       0.025
   0.07224403  0.04170890  0.00000000       0.025
   0.09632537  0.05561187  0.00000000       0.025
   0.00000000  0.02780659  0.00000000       0.025
   0.02408134  0.04170956  0.00000000       0.025
   0.04816269  0.05561253  0.00000000       0.025
   0.07224403  0.06951550  0.00000000       0.025
   0.09632537  0.08341846  0.00000000       0.025
  -0.09632537 -0.02780528  0.00000000       0.025
  -0.07224403 -0.01390231  0.00000000       0.025
  -0.04816269  0.00000066  0.00000000       0.025
  -0.02408134  0.01390362  0.00000000       0.025
   0.00000000  0.05561318  0.00000000       0.025
   0.02408134  0.06951615  0.00000000       0.025
   0.04816269  0.08341912  0.00000000       0.025
   0.07224403  0.09732209  0.00000000       0.025
   0.09632537  0.11122505  0.00000000       0.025
  -0.09632537  0.00000131  0.00000000       0.025
  -0.07224403  0.01390428  0.00000000       0.025
  -0.04816269  0.02780725  0.00000000       0.025
  -0.02408134  0.04171021  0.00000000       0.025
   0.00000000  0.08341977  0.00000000       0.025
   0.02408134  0.09732274  0.00000000       0.025
   0.04816269  0.11122571  0.00000000       0.025
   0.07224403  0.12512868  0.00000000       0.025
   0.09632537  0.13903165  0.00000000       0.025
  -0.09632537  0.02780790  0.00000000       0.025
  -0.07224403  0.04171087  0.00000000       0.025
  -0.04816269  0.05561384  0.00000000       0.025
  -0.02408134  0.06951681  0.00000000       0.025
   0.00000000  0.11122637  0.00000000       0.025
   0.02408134  0.12512933  0.00000000       0.025
   0.04816269  0.13903230  0.00000000       0.025
   0.07224403  0.15293527  0.00000000       0.025
   0.09632537  0.16683824  0.00000000       0.025
  -0.09632537  0.05561449  0.00000000       0.025
  -0.07224403  0.06951746  0.00000000       0.025
  -0.04816269  0.08342043  0.00000000       0.025
  -0.02408134  0.09732340  0.00000000       0.025

 k-points in reciprocal lattice and weights: K-Spacing Value to Generate K-Mesh: 0.03
   0.00000000  0.00000000  0.00000000       0.012
   0.11111111  0.00000000  0.00000000       0.025
   0.22222222  0.00000000  0.00000000       0.025
   0.33333333  0.00000000  0.00000000       0.025
   0.44444444  0.00000000  0.00000000       0.025
   0.00000000  0.11111111  0.00000000       0.025
   0.11111111  0.11111111  0.00000000       0.025
   0.22222222  0.11111111  0.00000000       0.025
   0.33333333  0.11111111  0.00000000       0.025
   0.44444444  0.11111111  0.00000000       0.025
  -0.44444444  0.11111111  0.00000000       0.025
  -0.33333333  0.11111111  0.00000000       0.025
  -0.22222222  0.11111111  0.00000000       0.025
  -0.11111111  0.11111111  0.00000000       0.025
   0.00000000  0.22222222  0.00000000       0.025
   0.11111111  0.22222222  0.00000000       0.025
   0.22222222  0.22222222  0.00000000       0.025
   0.33333333  0.22222222  0.00000000       0.025
   0.44444444  0.22222222  0.00000000       0.025
  -0.44444444  0.22222222  0.00000000       0.025
  -0.33333333  0.22222222  0.00000000       0.025
  -0.22222222  0.22222222  0.00000000       0.025
  -0.11111111  0.22222222  0.00000000       0.025
   0.00000000  0.33333333  0.00000000       0.025
   0.11111111  0.33333333  0.00000000       0.025
   0.22222222  0.33333333  0.00000000       0.025
   0.33333333  0.33333333  0.00000000       0.025
   0.44444444  0.33333333  0.00000000       0.025
  -0.44444444  0.33333333  0.00000000       0.025
  -0.33333333  0.33333333  0.00000000       0.025
  -0.22222222  0.33333333  0.00000000       0.025
  -0.11111111  0.33333333  0.00000000       0.025
   0.00000000  0.44444444  0.00000000       0.025
   0.11111111  0.44444444  0.00000000       0.025
   0.22222222  0.44444444  0.00000000       0.025
   0.33333333  0.44444444  0.00000000       0.025
   0.44444444  0.44444444  0.00000000       0.025
  -0.44444444  0.44444444  0.00000000       0.025
  -0.33333333  0.44444444  0.00000000       0.025
  -0.22222222  0.44444444  0.00000000       0.025
  -0.11111111  0.44444444  0.00000000       0.025

 position of ions in fractional coordinates (direct lattice)
   0.00000000  0.00000000  0.50000000
   0.66666885  0.33333464  0.50000000

 position of ions in cartesian coordinates  (Angst):
   0.00000000  0.00000000  7.50000000
   2.30702094  1.33195692  7.50000000

 k-point   1 :   0.0000 0.0000 0.0000  plane waves:    7501
 k-point   2 :   0.1111 0.0000 0.0000  plane waves:    7467
 k-point   3 :   0.2222 0.0000 0.0000  plane waves:    7461
 k-point   4 :   0.3333 0.0000 0.0000  plane waves:    7437
 k-point   5 :   0.4444 0.0000 0.0000  plane waves:    7438
 k-point   6 :   0.0000 0.1111 0.0000  plane waves:    7467
 k-point   7 :   0.1111 0.1111 0.0000  plane waves:    7483
 k-point   8 :   0.2222 0.1111 0.0000  plane waves:    7450
 k-point   9 :   0.3333 0.1111 0.0000  plane waves:    7430
 k-point  10 :   0.4444 0.1111 0.0000  plane waves:    7422
 k-point  11 :  -0.4444 0.1111 0.0000  plane waves:    7430
 k-point  12 :  -0.3333 0.1111 0.0000  plane waves:    7450
 k-point  13 :  -0.2222 0.1111 0.0000  plane waves:    7483
 k-point  14 :  -0.1111 0.1111 0.0000  plane waves:    7467
 k-point  15 :   0.0000 0.2222 0.0000  plane waves:    7461
 k-point  16 :   0.1111 0.2222 0.0000  plane waves:    7450
 k-point  17 :   0.2222 0.2222 0.0000  plane waves:    7441
 k-point  18 :   0.3333 0.2222 0.0000  plane waves:    7430
 k-point  19 :   0.4444 0.2222 0.0000  plane waves:    7430
 k-point  20 :  -0.4444 0.2222 0.0000  plane waves:    7441
 k-point  21 :  -0.3333 0.2222 0.0000  plane waves:    7450
 k-point  22 :  -0.2222 0.2222 0.0000  plane waves:    7461
 k-point  23 :  -0.1111 0.2222 0.0000  plane waves:    7483
 k-point  24 :   0.0000 0.3333 0.0000  plane waves:    7437
 k-point  25 :   0.1111 0.3333 0.0000  plane waves:    7430
 k-point  26 :   0.2222 0.3333 0.0000  plane waves:    7430
 k-point  27 :   0.3333 0.3333 0.0000  plane waves:    7434
 k-point  28 :   0.4444 0.3333 0.0000  plane waves:    7430
 k-point  29 :  -0.4444 0.3333 0.0000  plane waves:    7430
 k-point  30 :  -0.3333 0.3333 0.0000  plane waves:    7437
 k-point  31 :  -0.2222 0.3333 0.0000  plane waves:    7450
 k-point  32 :  -0.1111 0.3333 0.0000  plane waves:    7450
 k-point  33 :   0.0000 0.4444 0.0000  plane waves:    7438
 k-point  34 :   0.1111 0.4444 0.0000  plane waves:    7422
 k-point  35 :   0.2222 0.4444 0.0000  plane waves:    7430
 k-point  36 :   0.3333 0.4444 0.0000  plane waves:    7430
 k-point  37 :   0.4444 0.4444 0.0000  plane waves:    7422
 k-point  38 :  -0.4444 0.4444 0.0000  plane waves:    7438
 k-point  39 :  -0.3333 0.4444 0.0000  plane waves:    7430
 k-point  40 :  -0.2222 0.4444 0.0000  plane waves:    7441
 k-point  41 :  -0.1111 0.4444 0.0000  plane waves:    7430

 maximum and minimum number of plane-waves per node :       548      516

 maximum number of plane-waves:      7501
 maximum index in each direction:
   IXMAX=    9   IYMAX=    8   IZMAX=   27
   IXMIN=   -9   IYMIN=   -9   IZMIN=  -27

 parallel 3D FFT for wavefunctions:
    minimum data exchange during FFTs selected (reduces bandwidth)
 parallel 3D FFT for charge:
    minimum data exchange during FFTs selected (reduces bandwidth)

 Broyden mixing: mesh for mixing (old mesh)
   NGX = 17   NGY = 17   NGZ = 55
  (NGX  = 72   NGY  = 72   NGZ  =224)
  gives a total of  15895 points

 initial charge density was supplied:
 charge density of overlapping atoms calculated
 number of electron       8.0000000 magnetization
 keeping initial charge density in first step

 Maximum index for augmentation-charges         2830 (set IRDMAX)

 First call to EWALD:  gamma=   0.272
 Maximum number of real-space cells 4x 4x 1
 Maximum number of reciprocal cells 2x 2x 6

--------------------------------------- Iteration      1(   1)  ---------------------------------------

 eigenvalue-minimisations  :   656
 total energy-change (2. order) : 0.4399832E+02  (-0.2242657E+03)
 number of electron       8.0000000 magnetization
 augmentation part        8.0000000 magnetization

 Free energy of the ion-electron system (eV)
  alpha Z        PSCENC =         1.18815311
  Ewald energy   TEWEN  =       105.18674409
  -Hartree energ DENC   =      -349.50167286
  -exchange      EXHF   =         0.00000000
  -V(xc)+E(xc)   XCENC  =        21.65419750
  PAW double counting   =       217.04409276     -218.18290438
  entropy T*S    EENTRO =        -0.00180339
  eigenvalues    EBANDS =       -27.68627781
  atomic energy  EATOM  =       294.29778662
  Solvation  Ediel_sol  =         0.00000000
  free energy    TOTEN  =        43.99831564 eV

  energy without entropy =       44.00011904  energy(sigma->0) =       43.99921734

[...]

 eigenvalue-minimisations  :  1144
 total energy-change (2. order) :-0.4357253E+02  (-0.4247178E+02)
 number of electron       8.0000000 magnetization
 augmentation part        8.0000000 magnetization

[...]

 Broyden mixing:
  rms(total) = 0.20263E+00    rms(broyden)= 0.20239E+00
  rms(prec ) = 0.22830E+00
  weight for this iteration     100.00

[...]

 eigenvalues of (default mixing * dielectric matrix)
  average eigenvalue GAMMA=   2.0435
  2.0435

[...]

 eigenvalue-minimisations  :  1040
 total energy-change (2. order) : 0.3612177E-04  (-0.3329355E-04)
 number of electron       8.0000000 magnetization
 augmentation part       -0.0474428 magnetization

[...]

 Broyden mixing:
  rms(total) = 0.69569E-06    rms(broyden)= 0.68737E-06
  rms(prec ) = 0.80155E-06
  weight for this iteration     100.00

 eigenvalues of (default mixing * dielectric matrix)
  average eigenvalue GAMMA=   2.4900
  9.5886  6.2289  3.7881  2.9158  2.9158  2.3651  2.0828  2.0828  0.2876  1.6935
  0.8674  1.0875  1.0434  0.9830  0.9830  0.9271

[...]

--------------------------------------- Iteration      1(  22)  ---------------------------------------

 eigenvalue-minimisations  :   328
 total energy-change (2. order) :-0.6651476E-08  (-0.2838209E-10)
 number of electron       8.0000000 magnetization
 augmentation part       -0.0474852 magnetization

 Free energy of the ion-electron system (eV)
  alpha Z        PSCENC =         1.18815311
  Ewald energy   TEWEN  =       105.18674409
  -Hartree energ DENC   =      -348.78577625
  -exchange      EXHF   =         0.00000000
  -V(xc)+E(xc)   XCENC  =        21.43857731
  PAW double counting   =       197.91235599     -198.98283687
  entropy T*S    EENTRO =        -0.00646842
  eigenvalues    EBANDS =       -76.88039708
  atomic energy  EATOM  =       294.29778662
  Solvation  Ediel_sol  =         0.00000000
  free energy    TOTEN  =        -4.63186150 eV

  energy without entropy =       -4.62539308  energy(sigma->0) =       -4.62862729

 average (electrostatic) potential at core
  the test charge radii are     0.6991
  (the norm of the test charge is              1.0000)
       1 -61.9847       2 -61.9847

 E-fermi :  -5.3048     XC(G=0):  -1.9279     alpha+bet : -0.7248

 Fermi energy:        -5.3048400328

 k-point     1 :       0.0000    0.0000    0.0000
  band No.  band energies     occupation
      1     -14.5578      2.00000
      2     -11.7601      2.00000
      3      -5.8163      2.00000
      4      -5.8162      2.00000
      5      -5.8084      2.00000
      6      -3.8413      0.00000
      7      -3.1941      0.00000
      8      -3.1940      0.00000

[...]

 k-point    41 :      -0.1111    0.4444    0.0000
  band No.  band energies     occupation
      1     -13.9199      2.00000
      2     -12.7895      2.00000
      3      -6.3628      2.00000
      4      -5.2604      0.20865
      5      -5.1676      0.00010
      6      -4.4381      0.00000
      7      -3.3760      0.00000
      8      -2.3790      0.00000

 soft charge-density along one line, spin component           1
         0         1         2         3         4         5         6         7         8         9
 total charge-density along one line

------------------------ aborting loop because EDIFF is reached ----------------------------------------

         DFTD3 V3.0 Rev 1
 IVDW         = 12
 DF pbe
 parameters
 VDW_S6       =    1.0000
 VDW_S8       =    0.7875
 VDW_A1       =    0.4289
 VDW_A2       =    4.4407
 k1-k3        =   16.0000    1.3333   -4.0000
 VDW_RADIUS   =   50.2022 A
 VDW_CNRADIUS =   21.1671 A
 Edisp (eV)   -0.08306

 E6    (eV) :    -0.0578
 E8    (eV) :    -0.0253
 % E8        : 30.44

  FORCE on cell =-STRESS in cart. coord.  units (eV):
  Direction    XX          YY          ZZ          XY          YZ          ZX
  Alpha Z     1.18815     1.18815     1.18815
  Ewald     248.88829   248.88856  -392.59018    -0.00093     0.00000    -0.00000
  Hartree   310.68468   310.68481  -272.58373    -0.00052    -0.00000    -0.00000
  E(xc)     -24.27240   -24.27239   -24.82377    -0.00001    -0.00000    -0.00000
  Local    -651.42576  -651.42605   583.63095     0.00170    -0.00000    -0.00000
  n-local    10.83407    10.83410    13.85719     0.00008    -0.00000    -0.00000
  augment     0.17360     0.17360     0.10192    -0.00000     0.00000     0.00000
  Kinetic    96.92257    96.92242    91.20685    -0.00015     0.00000     0.00000
  Fock        0.00000     0.00000     0.00000     0.00000     0.00000     0.00000
  vdW        -0.09912    -0.09912    -0.00086     0.00000     0.00000    -0.00000
  Total      -7.10591    -7.10593    -0.01348     0.00017     0.00000     0.00000
  in kB     -41.16731   -41.16742    -0.07808     0.00100     0.00000     0.00000

 VOLUME and BASIS-vectors are now :
  energy-cutoff  :      520.00
  volume of cell :      276.55
      direct lattice vectors                 reciprocal lattice vectors
     4.613991532  0.000000000  0.000000000     0.216732084  0.125126711  0.000000000
    -2.306941376  3.995855142  0.000000000     0.000000000  0.250259322  0.000000000
     0.000000000  0.000000000 15.000000000     0.000000000  0.000000000  0.066666667

  length of vectors
     4.613991532  4.613982751 15.000000000     0.250258846  0.250259322  0.066666667

 FORCES acting on ions
    electron-ion (+dipol)            ewald-force                    non-local-force                 convergence-correction
   -.795E-03 0.155E-03 0.639E-06   0.104E-02 -.192E-03 0.980E-19   -.401E-03 0.726E-04 -.167E-06   -.374E-07 0.246E-06 -.456E-06
   0.795E-03 -.155E-03 0.739E-06   -.104E-02 0.192E-03 -.903E-19   0.401E-03 -.726E-04 -.176E-06   -.908E-07 -.283E-06 -.532E-06
   0.107E-06 0.460E-08 0.138E-05   -.429E-15 0.117E-14 0.774E-20   0.790E-07 0.378E-07 -.343E-06   -.128E-06 -.368E-07 -.988E-06

 POSITION                                       TOTAL-FORCE (eV/Angst)
      0.00000      0.00000      7.50000        -0.000151      0.000036     -0.000000
      2.30702      1.33196      7.50000         0.000151     -0.000036      0.000000
    total drift:                                0.000000      0.000000      0.000000

  FREE ENERGIE OF THE ION-ELECTRON SYSTEM (eV)
  free  energy   TOTEN  =        -4.71492424 eV

  energy  without entropy=       -4.70845582  energy(sigma->0) =       -4.71169003