 vasp.6.3.1 04May22 (build Aug 04 2022 13:02:54) complex

 executed on             LinuxIFC date 2024.11.25  05:12:32

 INCAR:
   ISTART = 1            (Read existing wavefunction
   ISPIN = 1            (Non-Spin polarised DFT)
   LREAL = .FALSE.       (Projection operators: automatic)
   ENCUT = 520        (Cut-off energy for plane wave basis set, in eV)
   PREC = A       (Precision level)
   LWAVE = .FALSE.        (Write WAVECAR or not)
   LCHARG = .FALSE.        (Write CHGCAR or not)
   ADDGRID = .TRUE.        (Increase grid
   KSPACING = 0.2000
   KGAMMA = .FALSE.
   IVDW = 12
   ISMEAR = 0            (Gaussian smearing
   SIGMA = 0.05         (Smearing value in eV
   NELM = 200           (Max electronic SCF steps)
   NELMIN = 6            (Min electronic SCF steps)
   EDIFF = 1E-08        (SCF energy convergence
   NSW = 0          (Max ionic steps)
   IBRION = -1            (Algorithm: 0-MD
   ISIF = 3           (Stress/relaxation: 2-Ions, 3-Shape/Ions/V, 4-Shape/Ions)
   EDIFFG = -1E-04        (Ionic convergence
   NCORE = 14

 POTCAR:    PAW_PBE C 08Apr2002
|           W    W    AA    RRRRR   N    N  II  N    N   GGGG   !!!           |
|           W    W   A  A   R    R  NN   N  II  NN   N  G    G  !!!           |
|           W    W  A    A  R    R  N N  N  II  N N  N  G       !!!           |
|           W WW W  AAAAAA  RRRRR   N  N N  II  N  N N  G  GGG   !            |
|           WW  WW  A    A  R   R   N   NN  II  N   NN  G    G                |
|           W    W  A    A  R    R  N    N  II  N    N   GGGG   !!!           |
|     For optimal performance we recommend to set                             |
|       NCORE = 2 up to number-of-cores-per-socket                            |
|     This setting can greatly improve the performance of VASP for DFT.       |
|     The default, NCORE=1 might be grossly inefficient on modern             |
|     multi-core architectures or massively parallel machines. Do your        |
|     Unfortunately you need to use the default for GW and RPA                |
|     calculations (for HF NCORE is supported but not extensively tested      |
|     yet).                                                                   |

 POTCAR:    PAW_PBE C 08Apr2002
   VRHFIN =C: s2p2

   TITEL  = PAW_PBE C 08Apr2002
   POMASS =   12.011; ZVAL   =    4.000    mass and valenz
   ENMAX  =  400.000; ENMIN  =  300.000 eV

  PAW_PBE C 08Apr2002                   :

 POSCAR: AB-stacked Graphene
  positions in direct lattice
  velocities in cartesian coordinates
 exchange correlation table for  LEXCH =        8
   RHO(1)=    0.500       N(1)  =     2000
   RHO(2)=  100.500       N(2)  =     4000

 ion  position               nearest neighbor table
   1  0.118  0.998  1.000-   2 1.42   2 1.42   2 1.42
   2  0.784  0.332  0.000-   1 1.42   1 1.42   1 1.42
   3  0.465  0.668  0.500-   4 1.42   4 1.42   4 1.42
   4  0.132  0.002  0.500-   3 1.42   3 1.42   3 1.42

  Warning from LATTYP: Monoclinic adjustment (A1->A3, A2->A1, A3->A2)!
  LATTYP: Found a base centered orthorhombic cell.
 ALAT       =     2.4664926102
 B/A-ratio  =     1.7321284541
 C/A-ratio  =     2.0271700711

  Lattice vectors:

 A1 = (   1.2335791197,   2.1359430323,  -0.0000000552)
 A2 = (  -2.4665805555,   0.0002435830,   0.0000000494)
 A3 = (  -0.0000000441,  -0.0000001059,   5.0000000000)

Analysis of symmetry for initial positions (statically):
 Subroutine PRICEL returns:
 Original cell was already a primitive cell.

 Routine SETGRP: Setting up the symmetry group for a
 base centered orthorhombic supercell.

 Subroutine GETGRP returns: Found  4 space group operations
 (whereof  2 operations were pure point group operations)
 out of a pool of  8 trial point group operations.

The static configuration has the point symmetry C_1h.
 The point group associated with its full space group is C_2h.

Analysis of symmetry for dynamics (positions and initial velocities):
 Subroutine PRICEL returns:
 Original cell was already a primitive cell.

 Routine SETGRP: Setting up the symmetry group for a
 base centered orthorhombic supercell.

 Subroutine GETGRP returns: Found  4 space group operations
 (whereof  2 operations were pure point group operations)
 out of a pool of  8 trial point group operations.

The dynamic configuration has the point symmetry C_1h.
 The point group associated with its full space group is C_2h.

 Subroutine INISYM returns: Found  4 space group operations
 (whereof  2 operations are pure point group operations),
 and found     1 'primitive' translations

                                     Primitive cell

  volume of cell :      26.3439

  direct lattice vectors                    reciprocal lattice vectors
     2.466580556 -0.000243583 -0.000000049     0.405442669  0.234020469  0.000000009
    -1.233001436  2.136186615 -0.000000006     0.000046231  0.468150580  0.000000010
    -0.000000044 -0.000000106  5.000000000     0.000000004  0.000000003  0.200000000

  length of vectors
     2.466580568  2.466492610  5.000000000     0.468133888  0.468150582  0.200000000

  position of ions in fractional coordinates (direct lattice)
     0.117794189  0.998254412  0.999999659
     0.784453271  0.331580559  0.000000223
     0.465038818  0.668419402  0.499999796
     0.131697875  0.001745627  0.500000322

  ion indices of the primitive-cell ions
   primitive index   ion index
                 1           1
                 2           2
                 3           3
                 4           4

 KPOINTS: K-Spacing Value to Generate K-Mesh: 0.03

Automatic generation of k-mesh.
 Grid dimensions read from file:
 generate k-points for:   18   18    7

 Generating k-lattice:

  Cartesian coordinates                     Fractional coordinates (reciprocal lattice)
     0.022524593  0.013001137  0.000000000     0.055555556 -0.000000000  0.000000000
     0.000002568  0.026008366  0.000000001    -0.000000000  0.055555556  0.000000000
     0.000000001  0.000000000  0.028571429    -0.000000000  0.000000000  0.142857143

  Length of vectors
     0.026007438  0.026008366  0.028571429

  Shift w.r.t. Gamma in fractional coordinates (k-lattice)
     0.000000000  0.000000000  0.000000000

 Subroutine IBZKPT returns following result:

 Found    656 irreducible k-points:

 Following reciprocal coordinates:
            Coordinates               Weight
  0.000000  0.000000  0.000000      1.000000
  0.055556 -0.000000  0.000000      2.000000
  0.111111 -0.000000 -0.000000      2.000000
  0.166667 -0.000000 -0.000000      2.000000
  0.222222 -0.000000  0.000000      2.000000
  0.277778 -0.000000  0.000000      2.000000
  0.333333 -0.000000 -0.000000      2.000000
  0.388889 -0.000000 -0.000000      2.000000
  0.444444 -0.000000  0.000000      2.000000
  0.500000 -0.000000  0.000000      1.000000
 -0.000000  0.055556 -0.000000      2.000000
 -0.055556  0.055556 -0.000000      2.000000
  0.055556  0.055556  0.000000      2.000000
 -0.111111  0.055556 -0.000000      2.000000
  0.111111  0.055556  0.000000      2.000000
 -0.166667  0.055556 -0.000000      2.000000
  0.166667  0.055556 -0.000000      2.000000
 -0.222222  0.055556 -0.000000      2.000000
  0.222222  0.055556  0.000000      2.000000
 -0.277778  0.055556 -0.000000      2.000000
  0.277778  0.055556  0.000000      2.000000
 -0.333333  0.055556 -0.000000      2.000000
  0.333333  0.055556 -0.000000      2.000000
 -0.388889  0.055556  0.000000      2.000000
  0.388889  0.055556 -0.000000      2.000000
 -0.444444  0.055556 -0.000000      2.000000
  0.444444  0.055556  0.000000      2.000000
  0.500000  0.055556 -0.000000      2.000000
 -0.000000  0.111111 -0.000000      2.000000
 -0.111111  0.111111  0.000000      2.000000
  0.055556  0.111111  0.000000      2.000000
 -0.166667  0.111111  0.000000      2.000000
  0.111111  0.111111  0.000000      2.000000
 -0.222222  0.111111 -0.000000      2.000000
  0.166667  0.111111 -0.000000      2.000000
 -0.277778  0.111111  0.000000      2.000000
  0.222222  0.111111 -0.000000      2.000000
 -0.333333  0.111111  0.000000      2.000000
  0.277778  0.111111  0.000000      2.000000
 -0.388889  0.111111 -0.000000      2.000000
  0.333333  0.111111 -0.000000      2.000000
 -0.444444  0.111111  0.000000      2.000000
  0.388889  0.111111 -0.000000      2.000000
  0.500000  0.111111  0.000000      2.000000
  0.444444  0.111111  0.000000      2.000000
 -0.055556  0.111111 -0.000000      2.000000
 -0.000000  0.166667 -0.000000      2.000000
 -0.166667  0.166667 -0.000000      2.000000
  0.055556  0.166667  0.000000      2.000000
 -0.222222  0.166667 -0.000000      2.000000
  0.111111  0.166667  0.000000      2.000000
 -0.277778  0.166667 -0.000000      2.000000
  0.166667  0.166667 -0.000000      2.000000
 -0.333333  0.166667  0.000000      2.000000
  0.222222  0.166667 -0.000000      2.000000
 -0.388889  0.166667 -0.000000      2.000000
  0.277778  0.166667  0.000000      2.000000
 -0.444444  0.166667 -0.000000      2.000000
  0.333333  0.166667  0.000000      2.000000
  0.500000  0.166667 -0.000000      2.000000
[...]
 -0.333333  0.444444  0.428571      4.000000
 -0.111111  0.444444 -0.428571      4.000000
 -0.277778  0.444444  0.428571      4.000000
 -0.166667  0.444444 -0.428571      4.000000
 -0.222222  0.444444  0.428571      4.000000
 -0.000000  0.500000  0.428571      2.000000
  0.500000  0.500000 -0.428571      2.000000
  0.055556  0.500000  0.428571      4.000000
  0.444444  0.500000 -0.428571      4.000000
  0.111111  0.500000  0.428571      4.000000
  0.388889  0.500000 -0.428571      4.000000
  0.166667  0.500000  0.428571      4.000000
  0.333333  0.500000 -0.428571      4.000000
  0.222222  0.500000  0.428571      4.000000
  0.277778  0.500000 -0.428571      4.000000

 Following cartesian coordinates:
            Coordinates               Weight
  0.000000  0.000000  0.000000      1.000000
  0.022525  0.013001  0.000000      2.000000
  0.045049  0.026002  0.000000      2.000000
  0.067574  0.039003  0.000000      2.000000
  0.090098  0.052005  0.000000      2.000000
  0.112623  0.065006  0.000000      2.000000
  0.135148  0.078007  0.000000      2.000000
  0.157672  0.091008  0.000000      2.000000
  0.180197  0.104009  0.000000      2.000000
  0.202721  0.117010  0.000000      1.000000
  0.000003  0.026008  0.000000      2.000000
 -0.022522  0.013007  0.000000      2.000000
  0.022527  0.039010  0.000000      2.000000
 -0.045047  0.000006 -0.000000      2.000000
  0.045052  0.052011  0.000000      2.000000
 -0.067571 -0.012995 -0.000000      2.000000
  0.067576  0.065012  0.000000      2.000000
 -0.090096 -0.025996 -0.000000      2.000000
  0.090101  0.078013  0.000000      2.000000
 -0.112620 -0.038997 -0.000000      2.000000
  0.112626  0.091014  0.000000      2.000000
 -0.135145 -0.051998 -0.000000      2.000000
  0.135150  0.104015  0.000000      2.000000
 -0.157670 -0.065000 -0.000000      2.000000
  0.157675  0.117016  0.000000      2.000000
 -0.180194 -0.078001 -0.000000      2.000000
  0.180199  0.130017  0.000000      2.000000
  0.202724  0.143019  0.000000      2.000000
  0.000005  0.052017  0.000000      2.000000
 -0.045044  0.026014  0.000000      2.000000
[...]
  -0.22222222  0.05555556 -0.00000000       0.001
   0.22222222  0.05555556  0.00000000       0.001
  -0.27777778  0.05555556 -0.00000000       0.001
   0.27777778  0.05555556  0.00000000       0.001
  -0.33333333  0.05555556 -0.00000000       0.001
   0.33333333  0.05555556 -0.00000000       0.001
  -0.38888889  0.05555556  0.00000000       0.001
   0.38888889  0.05555556 -0.00000000       0.001
  -0.44444444  0.05555556 -0.00000000       0.001
   0.44444444  0.05555556  0.00000000       0.001
   0.50000000  0.05555556 -0.00000000       0.001
  -0.00000000  0.11111111 -0.00000000       0.001
  -0.11111111  0.11111111  0.00000000       0.001
   0.05555556  0.11111111  0.00000000       0.001
  -0.16666667  0.11111111  0.00000000       0.001
   0.11111111  0.11111111  0.00000000       0.001
  -0.22222222  0.11111111 -0.00000000       0.001
   0.16666667  0.11111111 -0.00000000       0.001
  -0.27777778  0.11111111  0.00000000       0.001
   0.22222222  0.11111111 -0.00000000       0.001
  -0.33333333  0.11111111  0.00000000       0.001
   0.27777778  0.11111111  0.00000000       0.001
  -0.38888889  0.11111111 -0.00000000       0.001
   0.33333333  0.11111111 -0.00000000       0.001
  -0.44444444  0.11111111  0.00000000       0.001
   0.38888889  0.11111111 -0.00000000       0.001
   0.50000000  0.11111111  0.00000000       0.001
   0.44444444  0.11111111  0.00000000       0.001
  -0.05555556  0.11111111 -0.00000000       0.001
  -0.00000000  0.16666667 -0.00000000       0.001
  -0.16666667  0.16666667 -0.00000000       0.001
   0.05555556  0.16666667  0.00000000       0.001
  -0.22222222  0.16666667 -0.00000000       0.001
   0.11111111  0.16666667  0.00000000       0.001
  -0.27777778  0.16666667 -0.00000000       0.001
   0.16666667  0.16666667 -0.00000000       0.001
  -0.33333333  0.16666667  0.00000000       0.001
   0.22222222  0.16666667 -0.00000000       0.001
  -0.38888889  0.16666667 -0.00000000       0.001
   0.27777778  0.16666667  0.00000000       0.001
  -0.44444444  0.16666667 -0.00000000       0.001
   0.33333333  0.16666667  0.00000000       0.001
   0.50000000  0.16666667 -0.00000000       0.001
[...]
  -0.33333333  0.44444444  0.42857143       0.002
  -0.11111111  0.44444444 -0.42857143       0.002
  -0.27777778  0.44444444  0.42857143       0.002
  -0.16666667  0.44444444 -0.42857143       0.002
  -0.22222222  0.44444444  0.42857143       0.002
  -0.00000000  0.50000000  0.42857143       0.001
   0.50000000  0.50000000 -0.42857143       0.001
   0.05555556  0.50000000  0.42857143       0.002
   0.44444444  0.50000000 -0.42857143       0.002
   0.11111111  0.50000000  0.42857143       0.002
   0.38888889  0.50000000 -0.42857143       0.002
   0.16666667  0.50000000  0.42857143       0.002
   0.33333333  0.50000000 -0.42857143       0.002
   0.22222222  0.50000000  0.42857143       0.002
   0.27777778  0.50000000 -0.42857143       0.002

 position of ions in fractional coordinates (direct lattice)
   0.11779419  0.99825441  0.99999966
   0.78445327  0.33158056  0.00000022
   0.46503882  0.66841940  0.49999980
   0.13169788  0.00174563  0.50000032

 position of ions in cartesian coordinates  (Angst):
  -0.94030031  2.13242891  4.99999828
   1.52607788  0.70812687  0.00000108
   0.32289360  1.42775525  2.49999895
   0.32269103  0.00369685  2.50000161

 k-point   1 :   0.0000 0.0000 0.0000  plane waves:     697
 k-point   2 :   0.0556-0.0000 0.0000  plane waves:     714
 k-point   3 :   0.1111-0.0000-0.0000  plane waves:     720
 k-point   4 :   0.1667-0.0000-0.0000  plane waves:     718
 k-point   5 :   0.2222-0.0000 0.0000  plane waves:     718
 k-point   6 :   0.2778-0.0000 0.0000  plane waves:     728
 k-point   7 :   0.3333-0.0000-0.0000  plane waves:     720
 k-point   8 :   0.3889-0.0000-0.0000  plane waves:     710
 k-point   9 :   0.4444-0.0000 0.0000  plane waves:     710
 k-point  10 :   0.5000-0.0000 0.0000  plane waves:     700
 k-point  11 :  -0.0000 0.0556-0.0000  plane waves:     714
 k-point  12 :  -0.0556 0.0556-0.0000  plane waves:     714
 k-point  13 :   0.0556 0.0556 0.0000  plane waves:     719
 k-point  14 :  -0.1111 0.0556-0.0000  plane waves:     719
 k-point  15 :   0.1111 0.0556 0.0000  plane waves:     721
 k-point  16 :  -0.1667 0.0556-0.0000  plane waves:     721
 k-point  17 :   0.1667 0.0556-0.0000  plane waves:     716
 k-point  18 :  -0.2222 0.0556-0.0000  plane waves:     716
 k-point  19 :   0.2222 0.0556 0.0000  plane waves:     720
 k-point  20 :  -0.2778 0.0556-0.0000  plane waves:     720
 k-point  21 :   0.2778 0.0556 0.0000  plane waves:     718
 k-point  22 :  -0.3333 0.0556-0.0000  plane waves:     718
 k-point  23 :   0.3333 0.0556-0.0000  plane waves:     708
 k-point  24 :  -0.3889 0.0556 0.0000  plane waves:     708
 k-point  25 :   0.3889 0.0556-0.0000  plane waves:     707
 k-point  26 :  -0.4444 0.0556-0.0000  plane waves:     707
 k-point  27 :   0.4444 0.0556 0.0000  plane waves:     704
 k-point  28 :   0.5000 0.0556-0.0000  plane waves:     704
 k-point  29 :  -0.0000 0.1111-0.0000  plane waves:     720
 k-point  30 :  -0.1111 0.1111 0.0000  plane waves:     720
 k-point  31 :   0.0556 0.1111 0.0000  plane waves:     721
 k-point  32 :  -0.1667 0.1111 0.0000  plane waves:     721
 k-point  33 :   0.1111 0.1111 0.0000  plane waves:     723
 k-point  34 :  -0.2222 0.1111-0.0000  plane waves:     723
 k-point  35 :   0.1667 0.1111-0.0000  plane waves:     715
 k-point  36 :  -0.2778 0.1111 0.0000  plane waves:     715
 k-point  37 :   0.2222 0.1111-0.0000  plane waves:     718
 k-point  38 :  -0.3333 0.1111 0.0000  plane waves:     718
 k-point  39 :   0.2778 0.1111 0.0000  plane waves:     712
 k-point  40 :  -0.3889 0.1111-0.0000  plane waves:     712
 k-point  41 :   0.3333 0.1111-0.0000  plane waves:     702
 k-point  42 :  -0.4444 0.1111 0.0000  plane waves:     702
 k-point  43 :   0.3889 0.1111-0.0000  plane waves:     697
 k-point  44 :   0.5000 0.1111 0.0000  plane waves:     697
 k-point  45 :   0.4444 0.1111 0.0000  plane waves:     700
 k-point  46 :  -0.0556 0.1111-0.0000  plane waves:     719
 k-point  47 :  -0.0000 0.1667-0.0000  plane waves:     718
 k-point  48 :  -0.1667 0.1667-0.0000  plane waves:     718
 k-point  49 :   0.0556 0.1667 0.0000  plane waves:     716
 k-point  50 :  -0.2222 0.1667-0.0000  plane waves:     716
 k-point  51 :   0.1111 0.1667 0.0000  plane waves:     715
 k-point  52 :  -0.2778 0.1667-0.0000  plane waves:     715
 k-point  53 :   0.1667 0.1667-0.0000  plane waves:     723
 k-point  54 :  -0.3333 0.1667 0.0000  plane waves:     723
 k-point  55 :   0.2222 0.1667-0.0000  plane waves:     715
 k-point  56 :  -0.3889 0.1667-0.0000  plane waves:     715
 k-point  57 :   0.2778 0.1667 0.0000  plane waves:     704
 k-point  58 :  -0.4444 0.1667-0.0000  plane waves:     704
 k-point  59 :   0.3333 0.1667 0.0000  plane waves:     701
 k-point  60 :   0.5000 0.1667-0.0000  plane waves:     701
[...]
 k-point 642 :  -0.3333 0.4444 0.4286  plane waves:     707
 k-point 643 :  -0.1111 0.4444-0.4286  plane waves:     707
 k-point 644 :  -0.2778 0.4444 0.4286  plane waves:     704
 k-point 645 :  -0.1667 0.4444-0.4286  plane waves:     704
 k-point 646 :  -0.2222 0.4444 0.4286  plane waves:     696
 k-point 647 :  -0.0000 0.5000 0.4286  plane waves:     708
 k-point 648 :   0.5000 0.5000-0.4286  plane waves:     708
 k-point 649 :   0.0556 0.5000 0.4286  plane waves:     712
 k-point 650 :   0.4444 0.5000-0.4286  plane waves:     712
 k-point 651 :   0.1111 0.5000 0.4286  plane waves:     710
 k-point 652 :   0.3889 0.5000-0.4286  plane waves:     710
 k-point 653 :   0.1667 0.5000 0.4286  plane waves:     708
 k-point 654 :   0.3333 0.5000-0.4286  plane waves:     708
 k-point 655 :   0.2222 0.5000 0.4286  plane waves:     703
 k-point 656 :   0.2778 0.5000-0.4286  plane waves:     703

 maximum and minimum number of plane-waves per node :        58       41

 maximum number of plane-waves:       728
 maximum index in each direction:
   IXMAX=    5   IYMAX=    4   IZMAX=    9
   IXMIN=   -5   IYMIN=   -5   IZMIN=   -9

 parallel 3D FFT for wavefunctions:
    minimum data exchange during FFTs selected (reduces bandwidth)
 parallel 3D FFT for charge:
    minimum data exchange during FFTs selected (reduces bandwidth)

 Broyden mixing: mesh for mixing (old mesh)
   NGX =  9   NGY =  9   NGZ = 19
  (NGX  = 36   NGY  = 36   NGZ  = 80)
  gives a total of   1539 points

 initial charge density was supplied:
 charge density of overlapping atoms calculated
 number of electron      16.0000000 magnetization
 keeping initial charge density in first step

 Maximum index for augmentation-charges         2243 (set IRDMAX)

 First call to EWALD:  gamma=   0.596
 Maximum number of real-space cells 4x 4x 2
 Maximum number of reciprocal cells 2x 2x 4

--------------------------------------- Iteration      1(   1)  ---------------------------------------

 eigenvalue-minimisations  : 15760
 total energy-change (2. order) : 0.3116229E+02  (-0.8186069E+03)
 number of electron      16.0000000 magnetization
 augmentation part       16.0000000 magnetization

 Free energy of the ion-electron system (eV)
  alpha Z        PSCENC =        49.89194638
  Ewald energy   TEWEN  =      -617.67669458
  -Hartree energ DENC   =       -62.76018005
  -exchange      EXHF   =         0.00000000
  -V(xc)+E(xc)   XCENC  =        54.00712096
  PAW double counting   =       434.08818552     -436.36580876
  entropy T*S    EENTRO =        -0.00054053
  eigenvalues    EBANDS =        21.38268522
  atomic energy  EATOM  =       588.59557325
  Solvation  Ediel_sol  =         0.00000000
  free energy    TOTEN  =        31.16228742 eV

  energy without entropy =       31.16282795  energy(sigma->0) =       31.16255768

[...]

 eigenvalue-minimisations  : 21220
 total energy-change (2. order) :-0.6655482E+02  (-0.6140041E+02)
 number of electron      16.0000000 magnetization
 augmentation part       16.0000000 magnetization

[...]

 Broyden mixing:
  rms(total) = 0.89234E+00    rms(broyden)= 0.89224E+00
  rms(prec ) = 0.15191E+01
  weight for this iteration     100.00

[...]

 eigenvalues of (default mixing * dielectric matrix)
  average eigenvalue GAMMA=   2.2113
  2.2113

[...]

 eigenvalue-minimisations  : 19656
 total energy-change (2. order) :-0.8638722E-08  (-0.1127892E-07)
 number of electron      16.0000000 magnetization
 augmentation part        0.3863943 magnetization

[...]

 Broyden mixing:
  rms(total) = 0.82007E-05    rms(broyden)= 0.80288E-05
  rms(prec ) = 0.11014E-04
  weight for this iteration     100.00

 eigenvalues of (default mixing * dielectric matrix)
  average eigenvalue GAMMA=   1.8516
  2.8642  2.5329  2.5329  1.9500  1.8360  1.1178  0.9895  0.9895

[...]

--------------------------------------- Iteration      1(  14)  ---------------------------------------

 eigenvalue-minimisations  : 11140
 total energy-change (2. order) : 0.3423906E-08  (-0.6719895E-10)
 number of electron      16.0000000 magnetization
 augmentation part        0.3863947 magnetization

 Free energy of the ion-electron system (eV)
  alpha Z        PSCENC =        49.89194638
  Ewald energy   TEWEN  =      -617.67669458
  -Hartree energ DENC   =       -87.08742413
  -exchange      EXHF   =         0.00000000
  -V(xc)+E(xc)   XCENC  =        55.92045387
  PAW double counting   =      1691.86056018    -1694.61198338
  entropy T*S    EENTRO =        -0.00014506
  eigenvalues    EBANDS =       -22.65711728
  atomic energy  EATOM  =       588.59557325
  Solvation  Ediel_sol  =         0.00000000
  free energy    TOTEN  =       -35.76483075 eV

  energy without entropy =      -35.76468569  energy(sigma->0) =      -35.76475822

 average (electrostatic) potential at core
  the test charge radii are     0.6991
  (the norm of the test charge is              1.0000)
       1 -47.7328       2 -47.4694       3 -47.4693       4 -47.7328

 E-fermi :   7.7127     XC(G=0): -12.3104     alpha+bet :-15.2177

 Fermi energy:         7.7127450371

 k-point     1 :       0.0000    0.0000    0.0000
  band No.  band energies     occupation
      1     -12.8195      2.00000
      2     -10.7877      2.00000
      3      -2.6901      2.00000
      4       4.1928      2.00000
      5       4.5863      2.00000
      6       4.6062      2.00000
      7       4.8406      2.00000
      8       4.8596      2.00000
      9      15.7899      0.00000
     10      15.8257      0.00000
     11      16.2486      0.00000
     12      16.2840      0.00000

[...]

 k-point   656 :       0.2778    0.5000   -0.4286
  band No.  band energies     occupation
      1      -7.7857      2.00000
      2      -7.4312      2.00000
      3      -3.1003      2.00000
      4      -2.9122      2.00000
      5      -1.1926      2.00000
      6      -1.0426      2.00000
      7       4.5479      2.00000
      8       5.6720      2.00000
      9      10.1136      0.00000
     10      10.6407      0.00000
     11      18.5499      0.00000
     12      18.7983      0.00000

 soft charge-density along one line, spin component           1
         0         1         2         3         4         5         6         7         8         9
 total charge-density along one line

------------------------ aborting loop because EDIFF is reached ----------------------------------------

         DFTD3 V3.0 Rev 1
 IVDW         = 12
 DF pbe
 parameters
 VDW_S6       =    1.0000
 VDW_S8       =    0.7875
 VDW_A1       =    0.4289
 VDW_A2       =    4.4407
 k1-k3        =   16.0000    1.3333   -4.0000
 VDW_RADIUS   =   50.2022 A
 VDW_CNRADIUS =   21.1671 A
 Edisp (eV)   -0.81957

 E6    (eV) :    -0.5826
 E8    (eV) :    -0.2370
 % E8        : 28.91

  FORCE on cell =-STRESS in cart. coord.  units (eV):
  Direction    XX          YY          ZZ          XY          YZ          ZX
  Alpha Z    49.89195    49.89195    49.89195
  Ewald     -78.57929   -78.64000  -460.45738     0.11312    -0.00001    -0.00001
  Hartree    64.98200    64.95625   -42.85083     0.05264    -0.00000    -0.00000
  E(xc)     -60.20564   -60.20577   -61.51121     0.00016    -0.00000    -0.00000
  Local    -202.12445  -202.04091   256.39223    -0.16219     0.00001     0.00001
  n-local   -14.03996   -14.04187   -13.79540     0.00267     0.02404     0.04298
  augment    -1.57548    -1.57542    -1.44713     0.00000    -0.00000    -0.00000
  Kinetic   241.40943   241.40457   282.56123     0.02036    -0.24570    -0.45368
  Fock        0.00000     0.00000     0.00000     0.00000     0.00000     0.00000
  vdW         0.25698     0.25682    -0.23908     0.00049    -0.00000    -0.00000
  Total       0.01553     0.00561     8.54437     0.02725    -0.00000    -0.00000
  in kB       0.94463     0.34143   519.65001     1.65756    -0.00001    -0.00000

 VOLUME and BASIS-vectors are now :
  energy-cutoff  :      520.00
  volume of cell :       26.34
      direct lattice vectors                 reciprocal lattice vectors
     2.466580556 -0.000243583 -0.000000049     0.405442669  0.234020469  0.000000009
    -1.233001436  2.136186615 -0.000000006     0.000046231  0.468150580  0.000000010
    -0.000000044 -0.000000106  5.000000000     0.000000004  0.000000003  0.200000000

  length of vectors
     2.466580568  2.466492610  5.000000000     0.468133888  0.468150582  0.200000000

 FORCES acting on ions
    electron-ion (+dipol)            ewald-force                    non-local-force                 convergence-correction
   0.429E-01 0.765E-02 0.402E-03   -.410E-01 -.728E-02 -.234E-03   -.754E-02 -.191E-02 0.178E-09   -.138E-06 -.128E-06 -.531E-06
   -.769E-01 -.173E-01 -.948E-03   0.855E-01 0.198E-01 0.518E-03   0.141E-01 0.351E-02 -.333E-09   -.123E-06 0.130E-06 -.530E-06
   0.769E-01 0.178E-01 0.910E-04   -.855E-01 -.197E-01 -.491E-03   -.141E-01 -.351E-02 0.333E-09   0.123E-06 -.129E-06 0.530E-06
   -.429E-01 -.737E-02 -.115E-02   0.411E-01 0.725E-02 0.208E-03   0.754E-02 0.191E-02 -.178E-09   0.138E-06 0.128E-06 0.531E-06
   -.973E-04 0.744E-03 -.160E-02   0.305E-15 -.426E-14 0.119E-17   0.260E-17 0.867E-18 -.867E-18   -.191E-11 0.348E-09 0.681E-09

 POSITION                                       TOTAL-FORCE (eV/Angst)
     -0.94030      2.13243      5.00000        -0.006390     -0.001826      0.000000
      1.52608      0.70813      0.00000         0.023406      0.005915     -0.000000
      0.32289      1.42776      2.50000        -0.023406     -0.005915      0.000000
      0.32269      0.00370      2.50000         0.006390      0.001826     -0.000000
    total drift:                               -0.000097      0.000744     -0.001603

  FREE ENERGIE OF THE ION-ELECTRON SYSTEM (eV)
  free  energy   TOTEN  =       -36.58440294 eV

  energy  without entropy=      -36.58425787  energy(sigma->0) =      -36.58433041