 vasp.6.3.1 04May22 (build Aug 04 2022 13:02:54) complex

 executed on             LinuxIFC date 2024.11.25  05:33:23

 INCAR:
   ISTART = 1            (Read existing wavefunction
   ISPIN = 1            (Non-Spin polarised DFT)
   LREAL = .FALSE.       (Projection operators: automatic)
   ENCUT = 520        (Cut-off energy for plane wave basis set, in eV)
   PREC = A       (Precision level)
   LWAVE = .FALSE.        (Write WAVECAR or not)
   LCHARG = .FALSE.        (Write CHGCAR or not)
   ADDGRID = .TRUE.        (Increase grid
   KSPACING = 0.2000
   KGAMMA = .FALSE.
   IVDW = 12
   ISMEAR = 0            (Gaussian smearing
   SIGMA = 0.05         (Smearing value in eV
   NELM = 200           (Max electronic SCF steps)
   NELMIN = 6            (Min electronic SCF steps)
   EDIFF = 1E-08        (SCF energy convergence
   NSW = 0          (Max ionic steps)
   IBRION = -1            (Algorithm: 0-MD
   ISIF = 3           (Stress/relaxation: 2-Ions, 3-Shape/Ions/V, 4-Shape/Ions)
   EDIFFG = -1E-04        (Ionic convergence
   NCORE = 14

 POTCAR:    PAW_PBE C 08Apr2002
|           W    W    AA    RRRRR   N    N  II  N    N   GGGG   !!!           |
|           W    W   A  A   R    R  NN   N  II  NN   N  G    G  !!!           |
|           W    W  A    A  R    R  N N  N  II  N N  N  G       !!!           |
|           W WW W  AAAAAA  RRRRR   N  N N  II  N  N N  G  GGG   !            |
|           WW  WW  A    A  R   R   N   NN  II  N   NN  G    G                |
|           W    W  A    A  R    R  N    N  II  N    N   GGGG   !!!           |
|     For optimal performance we recommend to set                             |
|       NCORE = 2 up to number-of-cores-per-socket                            |
|     This setting can greatly improve the performance of VASP for DFT.       |
|     The default, NCORE=1 might be grossly inefficient on modern             |
|     multi-core architectures or massively parallel machines. Do your        |
|     Unfortunately you need to use the default for GW and RPA                |
|     calculations (for HF NCORE is supported but not extensively tested      |
|     yet).                                                                   |

 POTCAR:    PAW_PBE C 08Apr2002
   VRHFIN =C: s2p2

   TITEL  = PAW_PBE C 08Apr2002
   POMASS =   12.011; ZVAL   =    4.000    mass and valenz
   ENMAX  =  400.000; ENMIN  =  300.000 eV

  PAW_PBE C 08Apr2002                   :

 POSCAR: AB-stacked Graphene
  positions in direct lattice
  velocities in cartesian coordinates
 exchange correlation table for  LEXCH =        8
   RHO(1)=    0.500       N(1)  =     2000
   RHO(2)=  100.500       N(2)  =     4000

 ion  position               nearest neighbor table
   1  0.118  0.998  1.000-   2 1.42   2 1.42   2 1.42
   2  0.784  0.332  0.000-   1 1.42   1 1.42   1 1.42
   3  0.465  0.668  0.500-   4 1.42   4 1.42   4 1.42
   4  0.132  0.002  0.500-   3 1.42   3 1.42   3 1.42

  Warning from LATTYP: Monoclinic adjustment (A1->A3, A2->A1, A3->A2)!
  LATTYP: Found a base centered orthorhombic cell.
 ALAT       =     2.4664926102
 B/A-ratio  =     1.7321284541
 C/A-ratio  =     3.0812985081

  Lattice vectors:

 A1 = (   1.2335791197,   2.1359430323,  -0.0000000552)
 A2 = (  -2.4665805555,   0.0002435830,   0.0000000494)
 A3 = (  -0.0000000441,  -0.0000001059,   7.6000000000)

Analysis of symmetry for initial positions (statically):
 Subroutine PRICEL returns:
 Original cell was already a primitive cell.

 Routine SETGRP: Setting up the symmetry group for a
 base centered orthorhombic supercell.

 Subroutine GETGRP returns: Found  4 space group operations
 (whereof  2 operations were pure point group operations)
 out of a pool of  8 trial point group operations.

The static configuration has the point symmetry C_1h.
 The point group associated with its full space group is C_2h.

Analysis of symmetry for dynamics (positions and initial velocities):
 Subroutine PRICEL returns:
 Original cell was already a primitive cell.

 Routine SETGRP: Setting up the symmetry group for a
 base centered orthorhombic supercell.

 Subroutine GETGRP returns: Found  4 space group operations
 (whereof  2 operations were pure point group operations)
 out of a pool of  8 trial point group operations.

The dynamic configuration has the point symmetry C_1h.
 The point group associated with its full space group is C_2h.

 Subroutine INISYM returns: Found  4 space group operations
 (whereof  2 operations are pure point group operations),
 and found     1 'primitive' translations

                                     Primitive cell

  volume of cell :      40.0427

  direct lattice vectors                    reciprocal lattice vectors
     2.466580556 -0.000243583 -0.000000049     0.405442669  0.234020469  0.000000006
    -1.233001436  2.136186615 -0.000000006     0.000046231  0.468150580  0.000000007
    -0.000000044 -0.000000106  7.600000000     0.000000003  0.000000002  0.131578947

  length of vectors
     2.466580568  2.466492610  7.600000000     0.468133888  0.468150582  0.131578947

  position of ions in fractional coordinates (direct lattice)
     0.117794189  0.998254412  0.999999659
     0.784453271  0.331580559  0.000000223
     0.465038818  0.668419402  0.499999796
     0.131697875  0.001745627  0.500000322

  ion indices of the primitive-cell ions
   primitive index   ion index
                 1           1
                 2           2
                 3           3
                 4           4

 KPOINTS: K-Spacing Value to Generate K-Mesh: 0.03

Automatic generation of k-mesh.
 Grid dimensions read from file:
 generate k-points for:   18   18    4

 Generating k-lattice:

  Cartesian coordinates                     Fractional coordinates (reciprocal lattice)
     0.022524593  0.013001137  0.000000000     0.055555556 -0.000000000 -0.000000000
     0.000002568  0.026008366  0.000000000     0.000000000  0.055555556 -0.000000000
     0.000000001  0.000000000  0.032894737    -0.000000000 -0.000000000  0.250000000

  Length of vectors
     0.026007438  0.026008366  0.032894737

  Shift w.r.t. Gamma in fractional coordinates (k-lattice)
     0.000000000  0.000000000  0.000000000

 Subroutine IBZKPT returns following result:

 Found    492 irreducible k-points:

 Following reciprocal coordinates:
            Coordinates               Weight
  0.000000  0.000000  0.000000      1.000000
  0.055556 -0.000000  0.000000      2.000000
  0.111111 -0.000000 -0.000000      2.000000
  0.166667  0.000000 -0.000000      2.000000
  0.222222  0.000000  0.000000      2.000000
  0.277778  0.000000  0.000000      2.000000
  0.333333 -0.000000 -0.000000      2.000000
  0.388889 -0.000000 -0.000000      2.000000
  0.444444  0.000000  0.000000      2.000000
  0.500000  0.000000  0.000000      1.000000
  0.000000  0.055556 -0.000000      2.000000
 -0.055556  0.055556 -0.000000      2.000000
  0.055556  0.055556  0.000000      2.000000
 -0.111111  0.055556 -0.000000      2.000000
  0.111111  0.055556  0.000000      2.000000
 -0.166667  0.055556 -0.000000      2.000000
  0.166667  0.055556 -0.000000      2.000000
 -0.222222  0.055556 -0.000000      2.000000
  0.222222  0.055556  0.000000      2.000000
 -0.277778  0.055556 -0.000000      2.000000
  0.277778  0.055556  0.000000      2.000000
 -0.333333  0.055556 -0.000000      2.000000
  0.333333  0.055556 -0.000000      2.000000
 -0.388889  0.055556  0.000000      2.000000
  0.388889  0.055556 -0.000000      2.000000
 -0.444444  0.055556 -0.000000      2.000000
  0.444444  0.055556  0.000000      2.000000
  0.500000  0.055556 -0.000000      2.000000
  0.000000  0.111111 -0.000000      2.000000
 -0.111111  0.111111  0.000000      2.000000
  0.055556  0.111111  0.000000      2.000000
 -0.166667  0.111111  0.000000      2.000000
  0.111111  0.111111  0.000000      2.000000
 -0.222222  0.111111 -0.000000      2.000000
  0.166667  0.111111 -0.000000      2.000000
 -0.277778  0.111111  0.000000      2.000000
  0.222222  0.111111 -0.000000      2.000000
 -0.333333  0.111111  0.000000      2.000000
  0.277778  0.111111  0.000000      2.000000
 -0.388889  0.111111 -0.000000      2.000000
  0.333333  0.111111 -0.000000      2.000000
 -0.444444  0.111111  0.000000      2.000000
  0.388889  0.111111 -0.000000      2.000000
  0.500000  0.111111  0.000000      2.000000
  0.444444  0.111111  0.000000      2.000000
 -0.055556  0.111111 -0.000000      2.000000
  0.000000  0.166667 -0.000000      2.000000
 -0.166667  0.166667 -0.000000      2.000000
  0.055556  0.166667  0.000000      2.000000
 -0.222222  0.166667 -0.000000      2.000000
  0.111111  0.166667  0.000000      2.000000
 -0.277778  0.166667 -0.000000      2.000000
  0.166667  0.166667 -0.000000      2.000000
 -0.333333  0.166667  0.000000      2.000000
  0.222222  0.166667 -0.000000      2.000000
 -0.388889  0.166667 -0.000000      2.000000
  0.277778  0.166667  0.000000      2.000000
 -0.444444  0.166667 -0.000000      2.000000
  0.333333  0.166667  0.000000      2.000000
  0.500000  0.166667 -0.000000      2.000000
[...]
 -0.333333  0.444444  0.500000      2.000000
 -0.111111  0.444444  0.500000      2.000000
 -0.277778  0.444444  0.500000      2.000000
 -0.166667  0.444444  0.500000      2.000000
 -0.222222  0.444444  0.500000      2.000000
  0.000000  0.500000  0.500000      1.000000
  0.500000  0.500000  0.500000      1.000000
  0.055556  0.500000  0.500000      2.000000
  0.444444  0.500000  0.500000      2.000000
  0.111111  0.500000  0.500000      2.000000
  0.388889  0.500000  0.500000      2.000000
  0.166667  0.500000  0.500000      2.000000
  0.333333  0.500000  0.500000      2.000000
  0.222222  0.500000  0.500000      2.000000
  0.277778  0.500000  0.500000      2.000000

 Following cartesian coordinates:
            Coordinates               Weight
  0.000000  0.000000  0.000000      1.000000
  0.022525  0.013001  0.000000      2.000000
  0.045049  0.026002  0.000000      2.000000
  0.067574  0.039003  0.000000      2.000000
  0.090098  0.052005  0.000000      2.000000
  0.112623  0.065006  0.000000      2.000000
  0.135148  0.078007  0.000000      2.000000
  0.157672  0.091008  0.000000      2.000000
  0.180197  0.104009  0.000000      2.000000
  0.202721  0.117010  0.000000      1.000000
  0.000003  0.026008  0.000000      2.000000
 -0.022522  0.013007  0.000000      2.000000
  0.022527  0.039010  0.000000      2.000000
 -0.045047  0.000006 -0.000000      2.000000
  0.045052  0.052011  0.000000      2.000000
 -0.067571 -0.012995 -0.000000      2.000000
  0.067576  0.065012  0.000000      2.000000
 -0.090096 -0.025996 -0.000000      2.000000
  0.090101  0.078013  0.000000      2.000000
 -0.112620 -0.038997 -0.000000      2.000000
  0.112626  0.091014  0.000000      2.000000
 -0.135145 -0.051998 -0.000000      2.000000
  0.135150  0.104015  0.000000      2.000000
 -0.157670 -0.065000 -0.000000      2.000000
  0.157675  0.117016  0.000000      2.000000
 -0.180194 -0.078001 -0.000000      2.000000
  0.180199  0.130017  0.000000      2.000000
  0.202724  0.143019  0.000000      2.000000
  0.000005  0.052017  0.000000      2.000000
 -0.045044  0.026014  0.000000      2.000000
[...]
  -0.22222222  0.05555556 -0.00000000       0.002
   0.22222222  0.05555556  0.00000000       0.002
  -0.27777778  0.05555556 -0.00000000       0.002
   0.27777778  0.05555556  0.00000000       0.002
  -0.33333333  0.05555556 -0.00000000       0.002
   0.33333333  0.05555556 -0.00000000       0.002
  -0.38888889  0.05555556  0.00000000       0.002
   0.38888889  0.05555556 -0.00000000       0.002
  -0.44444444  0.05555556 -0.00000000       0.002
   0.44444444  0.05555556  0.00000000       0.002
   0.50000000  0.05555556 -0.00000000       0.002
   0.00000000  0.11111111 -0.00000000       0.002
  -0.11111111  0.11111111  0.00000000       0.002
   0.05555556  0.11111111  0.00000000       0.002
  -0.16666667  0.11111111  0.00000000       0.002
   0.11111111  0.11111111  0.00000000       0.002
  -0.22222222  0.11111111 -0.00000000       0.002
   0.16666667  0.11111111 -0.00000000       0.002
  -0.27777778  0.11111111  0.00000000       0.002
   0.22222222  0.11111111 -0.00000000       0.002
  -0.33333333  0.11111111  0.00000000       0.002
   0.27777778  0.11111111  0.00000000       0.002
  -0.38888889  0.11111111 -0.00000000       0.002
   0.33333333  0.11111111 -0.00000000       0.002
  -0.44444444  0.11111111  0.00000000       0.002
   0.38888889  0.11111111 -0.00000000       0.002
   0.50000000  0.11111111  0.00000000       0.002
   0.44444444  0.11111111  0.00000000       0.002
  -0.05555556  0.11111111 -0.00000000       0.002
   0.00000000  0.16666667 -0.00000000       0.002
  -0.16666667  0.16666667 -0.00000000       0.002
   0.05555556  0.16666667  0.00000000       0.002
  -0.22222222  0.16666667 -0.00000000       0.002
   0.11111111  0.16666667  0.00000000       0.002
  -0.27777778  0.16666667 -0.00000000       0.002
   0.16666667  0.16666667 -0.00000000       0.002
  -0.33333333  0.16666667  0.00000000       0.002
   0.22222222  0.16666667 -0.00000000       0.002
  -0.38888889  0.16666667 -0.00000000       0.002
   0.27777778  0.16666667  0.00000000       0.002
  -0.44444444  0.16666667 -0.00000000       0.002
   0.33333333  0.16666667  0.00000000       0.002
   0.50000000  0.16666667 -0.00000000       0.002
[...]
  -0.33333333  0.44444444  0.50000000       0.002
  -0.11111111  0.44444444  0.50000000       0.002
  -0.27777778  0.44444444  0.50000000       0.002
  -0.16666667  0.44444444  0.50000000       0.002
  -0.22222222  0.44444444  0.50000000       0.002
   0.00000000  0.50000000  0.50000000       0.001
   0.50000000  0.50000000  0.50000000       0.001
   0.05555556  0.50000000  0.50000000       0.002
   0.44444444  0.50000000  0.50000000       0.002
   0.11111111  0.50000000  0.50000000       0.002
   0.38888889  0.50000000  0.50000000       0.002
   0.16666667  0.50000000  0.50000000       0.002
   0.33333333  0.50000000  0.50000000       0.002
   0.22222222  0.50000000  0.50000000       0.002
   0.27777778  0.50000000  0.50000000       0.002

 position of ions in fractional coordinates (direct lattice)
   0.11779419  0.99825441  0.99999966
   0.78445327  0.33158056  0.00000022
   0.46503882  0.66841940  0.49999980
   0.13169788  0.00174563  0.50000032

 position of ions in cartesian coordinates  (Angst):
  -0.94030031  2.13242891  7.59999739
   1.52607788  0.70812687  0.00000166
   0.32289360  1.42775525  3.79999842
   0.32269103  0.00369685  3.80000244

 k-point   1 :   0.0000 0.0000 0.0000  plane waves:    1067
 k-point   2 :   0.0556-0.0000 0.0000  plane waves:    1086
 k-point   3 :   0.1111-0.0000-0.0000  plane waves:    1090
 k-point   4 :   0.1667 0.0000-0.0000  plane waves:    1088
 k-point   5 :   0.2222 0.0000 0.0000  plane waves:    1088
 k-point   6 :   0.2778 0.0000 0.0000  plane waves:    1094
 k-point   7 :   0.3333-0.0000-0.0000  plane waves:    1084
 k-point   8 :   0.3889-0.0000-0.0000  plane waves:    1070
 k-point   9 :   0.4444 0.0000 0.0000  plane waves:    1076
 k-point  10 :   0.5000 0.0000 0.0000  plane waves:    1068
 k-point  11 :   0.0000 0.0556-0.0000  plane waves:    1086
 k-point  12 :  -0.0556 0.0556-0.0000  plane waves:    1086
 k-point  13 :   0.0556 0.0556 0.0000  plane waves:    1091
 k-point  14 :  -0.1111 0.0556-0.0000  plane waves:    1091
 k-point  15 :   0.1111 0.0556 0.0000  plane waves:    1079
 k-point  16 :  -0.1667 0.0556-0.0000  plane waves:    1079
 k-point  17 :   0.1667 0.0556-0.0000  plane waves:    1096
 k-point  18 :  -0.2222 0.0556-0.0000  plane waves:    1096
 k-point  19 :   0.2222 0.0556 0.0000  plane waves:    1088
 k-point  20 :  -0.2778 0.0556-0.0000  plane waves:    1088
 k-point  21 :   0.2778 0.0556 0.0000  plane waves:    1086
 k-point  22 :  -0.3333 0.0556-0.0000  plane waves:    1086
 k-point  23 :   0.3333 0.0556-0.0000  plane waves:    1084
 k-point  24 :  -0.3889 0.0556 0.0000  plane waves:    1084
 k-point  25 :   0.3889 0.0556-0.0000  plane waves:    1079
 k-point  26 :  -0.4444 0.0556-0.0000  plane waves:    1079
 k-point  27 :   0.4444 0.0556 0.0000  plane waves:    1072
 k-point  28 :   0.5000 0.0556-0.0000  plane waves:    1072
 k-point  29 :   0.0000 0.1111-0.0000  plane waves:    1090
 k-point  30 :  -0.1111 0.1111 0.0000  plane waves:    1090
 k-point  31 :   0.0556 0.1111 0.0000  plane waves:    1079
 k-point  32 :  -0.1667 0.1111 0.0000  plane waves:    1079
 k-point  33 :   0.1111 0.1111 0.0000  plane waves:    1089
 k-point  34 :  -0.2222 0.1111-0.0000  plane waves:    1089
 k-point  35 :   0.1667 0.1111-0.0000  plane waves:    1091
 k-point  36 :  -0.2778 0.1111 0.0000  plane waves:    1091
 k-point  37 :   0.2222 0.1111-0.0000  plane waves:    1086
 k-point  38 :  -0.3333 0.1111 0.0000  plane waves:    1086
 k-point  39 :   0.2778 0.1111 0.0000  plane waves:    1084
 k-point  40 :  -0.3889 0.1111-0.0000  plane waves:    1084
 k-point  41 :   0.3333 0.1111-0.0000  plane waves:    1070
 k-point  42 :  -0.4444 0.1111 0.0000  plane waves:    1070
 k-point  43 :   0.3889 0.1111-0.0000  plane waves:    1073
 k-point  44 :   0.5000 0.1111 0.0000  plane waves:    1073
 k-point  45 :   0.4444 0.1111 0.0000  plane waves:    1074
 k-point  46 :  -0.0556 0.1111-0.0000  plane waves:    1091
 k-point  47 :   0.0000 0.1667-0.0000  plane waves:    1088
 k-point  48 :  -0.1667 0.1667-0.0000  plane waves:    1088
 k-point  49 :   0.0556 0.1667 0.0000  plane waves:    1096
 k-point  50 :  -0.2222 0.1667-0.0000  plane waves:    1096
 k-point  51 :   0.1111 0.1667 0.0000  plane waves:    1091
 k-point  52 :  -0.2778 0.1667-0.0000  plane waves:    1091
 k-point  53 :   0.1667 0.1667-0.0000  plane waves:    1083
 k-point  54 :  -0.3333 0.1667 0.0000  plane waves:    1083
 k-point  55 :   0.2222 0.1667-0.0000  plane waves:    1077
 k-point  56 :  -0.3889 0.1667-0.0000  plane waves:    1077
 k-point  57 :   0.2778 0.1667 0.0000  plane waves:    1072
 k-point  58 :  -0.4444 0.1667-0.0000  plane waves:    1072
 k-point  59 :   0.3333 0.1667 0.0000  plane waves:    1073
 k-point  60 :   0.5000 0.1667-0.0000  plane waves:    1073
[...]
 k-point 478 :  -0.3333 0.4444 0.5000  plane waves:    1072
 k-point 479 :  -0.1111 0.4444 0.5000  plane waves:    1072
 k-point 480 :  -0.2778 0.4444 0.5000  plane waves:    1066
 k-point 481 :  -0.1667 0.4444 0.5000  plane waves:    1066
 k-point 482 :  -0.2222 0.4444 0.5000  plane waves:    1062
 k-point 483 :   0.0000 0.5000 0.5000  plane waves:    1088
 k-point 484 :   0.5000 0.5000 0.5000  plane waves:    1088
 k-point 485 :   0.0556 0.5000 0.5000  plane waves:    1072
 k-point 486 :   0.4444 0.5000 0.5000  plane waves:    1072
 k-point 487 :   0.1111 0.5000 0.5000  plane waves:    1068
 k-point 488 :   0.3889 0.5000 0.5000  plane waves:    1068
 k-point 489 :   0.1667 0.5000 0.5000  plane waves:    1070
 k-point 490 :   0.3333 0.5000 0.5000  plane waves:    1070
 k-point 491 :   0.2222 0.5000 0.5000  plane waves:    1070
 k-point 492 :   0.2778 0.5000 0.5000  plane waves:    1070

 maximum and minimum number of plane-waves per node :        90       64

 maximum number of plane-waves:      1100
 maximum index in each direction:
   IXMAX=    5   IYMAX=    4   IZMAX=   14
   IXMIN=   -5   IYMIN=   -5   IZMIN=  -14

 parallel 3D FFT for wavefunctions:
    minimum data exchange during FFTs selected (reduces bandwidth)
 parallel 3D FFT for charge:
    minimum data exchange during FFTs selected (reduces bandwidth)

 Broyden mixing: mesh for mixing (old mesh)
   NGX =  9   NGY =  9   NGZ = 29
  (NGX  = 36   NGY  = 36   NGZ  =120)
  gives a total of   2349 points

 initial charge density was supplied:
 charge density of overlapping atoms calculated
 number of electron      16.0000000 magnetization
 keeping initial charge density in first step

 Maximum index for augmentation-charges         2211 (set IRDMAX)

 First call to EWALD:  gamma=   0.518
 Maximum number of real-space cells 4x 4x 2
 Maximum number of reciprocal cells 2x 2x 6

--------------------------------------- Iteration      1(   1)  ---------------------------------------

 eigenvalue-minimisations  : 11848
 total energy-change (2. order) : 0.4677011E+02  (-0.7709407E+03)
 number of electron      16.0000000 magnetization
 augmentation part       16.0000000 magnetization

 Free energy of the ion-electron system (eV)
  alpha Z        PSCENC =        32.82364894
  Ewald energy   TEWEN  =      -379.21299189
  -Hartree energ DENC   =      -204.48360580
  -exchange      EXHF   =         0.00000000
  -V(xc)+E(xc)   XCENC  =        52.83194545
  PAW double counting   =       434.08818552     -436.36580876
  entropy T*S    EENTRO =        -0.00068313
  eigenvalues    EBANDS =       -41.50615118
  atomic energy  EATOM  =       588.59557325
  Solvation  Ediel_sol  =         0.00000000
  free energy    TOTEN  =        46.77011239 eV

  energy without entropy =       46.77079552  energy(sigma->0) =       46.77045396

[...]

 eigenvalue-minimisations  : 16496
 total energy-change (2. order) :-0.8217494E+02  (-0.7593640E+02)
 number of electron      16.0000000 magnetization
 augmentation part       16.0000000 magnetization

[...]

 Broyden mixing:
  rms(total) = 0.89133E+00    rms(broyden)= 0.89123E+00
  rms(prec ) = 0.12520E+01
  weight for this iteration     100.00

[...]

 eigenvalues of (default mixing * dielectric matrix)
  average eigenvalue GAMMA=   2.1949
  2.1949

[...]

 eigenvalue-minimisations  : 14356
 total energy-change (2. order) :-0.1281647E-05  (-0.1324428E-06)
 number of electron      16.0000000 magnetization
 augmentation part        0.3838057 magnetization

[...]

 Broyden mixing:
  rms(total) = 0.17869E-04    rms(broyden)= 0.17789E-04
  rms(prec ) = 0.21824E-04
  weight for this iteration     100.00

 eigenvalues of (default mixing * dielectric matrix)
  average eigenvalue GAMMA=   1.8276
  3.1635  2.6199  2.4627  1.9540  0.9479  1.0160  1.0979  1.3592

[...]

--------------------------------------- Iteration      1(  14)  ---------------------------------------

 eigenvalue-minimisations  : 10412
 total energy-change (2. order) : 0.7163749E-08  (-0.3016671E-09)
 number of electron      16.0000000 magnetization
 augmentation part        0.3838039 magnetization

 Free energy of the ion-electron system (eV)
  alpha Z        PSCENC =        32.82364894
  Ewald energy   TEWEN  =      -379.21299189
  -Hartree energ DENC   =      -243.63551027
  -exchange      EXHF   =         0.00000000
  -V(xc)+E(xc)   XCENC  =        55.10540796
  PAW double counting   =      1668.09648796    -1670.83197314
  entropy T*S    EENTRO =        -0.00042998
  eigenvalues    EBANDS =       -87.83013512
  atomic energy  EATOM  =       588.59557325
  Solvation  Ediel_sol  =         0.00000000
  free energy    TOTEN  =       -36.88992230 eV

  energy without entropy =      -36.88949232  energy(sigma->0) =      -36.88970731

 average (electrostatic) potential at core
  the test charge radii are     0.6991
  (the norm of the test charge is              1.0000)
       1 -51.7936       2 -51.7861       3 -51.7861       4 -51.7936

 E-fermi :   3.6326     XC(G=0):  -9.4679     alpha+bet :-10.0116

 Fermi energy:         3.6326203419

 k-point     1 :       0.0000    0.0000    0.0000
  band No.  band energies     occupation
      1     -15.9167      2.00000
      2     -15.8100      2.00000
      3      -4.4451      2.00000
      4      -3.4512      2.00000
      5       0.6139      2.00000
      6       0.6149      2.00000
      7       0.6187      2.00000
      8       0.6192      2.00000
      9       7.1440      0.00000
     10      11.9532      0.00000
     11      11.9592      0.00000
     12      11.9700      0.00000

[...]

 k-point   492 :       0.2778    0.5000    0.5000
  band No.  band energies     occupation
      1     -11.5638      2.00000
      2     -11.5638      2.00000
      3      -7.0209      2.00000
      4      -7.0209      2.00000
      5      -5.1453      2.00000
      6      -5.1453      2.00000
      7       0.9057      2.00000
      8       0.9057      2.00000
      9       6.4096      0.00000
     10       6.4096      0.00000
     11      13.6782      0.00000
     12      13.6783      0.00000

 soft charge-density along one line, spin component           1
         0         1         2         3         4         5         6         7         8         9
 total charge-density along one line

------------------------ aborting loop because EDIFF is reached ----------------------------------------

         DFTD3 V3.0 Rev 1
 IVDW         = 12
 DF pbe
 parameters
 VDW_S6       =    1.0000
 VDW_S8       =    0.7875
 VDW_A1       =    0.4289
 VDW_A2       =    4.4407
 k1-k3        =   16.0000    1.3333   -4.0000
 VDW_RADIUS   =   50.2022 A
 VDW_CNRADIUS =   21.1671 A
 Edisp (eV)   -0.53905

 E6    (eV) :    -0.3884
 E8    (eV) :    -0.1506
 % E8        : 27.94

  FORCE on cell =-STRESS in cart. coord.  units (eV):
  Direction    XX          YY          ZZ          XY          YZ          ZX
  Alpha Z    32.82365    32.82365    32.82365
  Ewald     158.46450   158.45649  -696.13451     0.00307    -0.00001    -0.00002
  Hartree   221.01747   221.01595  -198.39794     0.00214    -0.00001    -0.00001
  E(xc)     -59.43572   -59.43580   -61.60496     0.00006    -0.00000    -0.00000
  Local    -576.99194  -576.98364   663.03495    -0.00549     0.00002     0.00003
  n-local   -14.24543   -14.24627   -13.00050     0.00054     0.00275     0.00443
  augment    -1.55697    -1.55691    -1.43540     0.00001    -0.00000    -0.00000
  Kinetic   240.08721   240.09321   274.86254    -0.00248    -0.03911    -0.06369
  Fock        0.00000     0.00000     0.00000     0.00000     0.00000     0.00000
  vdW        -0.10509    -0.10503    -0.62244    -0.00003    -0.00000    -0.00000
  Total       0.05767     0.06166    -0.47460    -0.00218     0.00000     0.00000
  in kB       2.30736     2.46713   -18.98950    -0.08716     0.00000     0.00000

 VOLUME and BASIS-vectors are now :
  energy-cutoff  :      520.00
  volume of cell :       40.04
      direct lattice vectors                 reciprocal lattice vectors
     2.466580556 -0.000243583 -0.000000049     0.405442669  0.234020469  0.000000006
    -1.233001436  2.136186615 -0.000000006     0.000046231  0.468150580  0.000000007
    -0.000000044 -0.000000106  7.600000000     0.000000003  0.000000002  0.131578947

  length of vectors
     2.466580568  2.466492610  7.600000000     0.468133888  0.468150582  0.131578947

 FORCES acting on ions
    electron-ion (+dipol)            ewald-force                    non-local-force                 convergence-correction
   -.505E-02 -.290E-02 0.810E-03   0.524E-02 0.286E-02 -.774E-03   -.148E-03 -.220E-03 0.612E-11   0.128E-05 0.181E-05 -.822E-05
   0.403E-02 0.318E-02 -.185E-02   -.422E-02 -.257E-02 0.104E-02   0.301E-03 0.265E-03 -.981E-11   -.487E-05 -.811E-06 -.821E-05
   -.411E-02 -.257E-02 0.179E-03   0.419E-02 0.260E-02 -.974E-03   -.301E-03 -.265E-03 0.981E-11   0.487E-05 0.812E-06 0.836E-05
   0.500E-02 0.339E-02 -.230E-02   -.522E-02 -.289E-02 0.713E-03   0.148E-03 0.220E-03 -.612E-11   -.128E-05 -.181E-05 0.836E-05
   -.139E-03 0.109E-02 -.317E-02   -.304E-14 0.117E-14 -.108E-18   -.813E-19 -.271E-19 -.153E-18   -.285E-10 0.147E-08 0.294E-06

 POSITION                                       TOTAL-FORCE (eV/Angst)
     -0.94030      2.13243      7.60000         0.000055     -0.000491      0.000000
      1.52608      0.70813      0.00000         0.000174      0.000555     -0.000000
      0.32289      1.42776      3.80000        -0.000174     -0.000555      0.000000
      0.32269      0.00370      3.80000        -0.000055      0.000491     -0.000000
    total drift:                               -0.000139      0.001086     -0.003166

  FREE ENERGIE OF THE ION-ELECTRON SYSTEM (eV)
  free  energy   TOTEN  =       -37.42896787 eV

  energy  without entropy=      -37.42853789  energy(sigma->0) =      -37.42875288