 vasp.6.3.1 04May22 (build Aug 04 2022 13:02:54) complex

 executed on             LinuxIFC date 2024.11.25  05:25:41

 INCAR:
   ISTART = 1            (Read existing wavefunction
   ISPIN = 1            (Non-Spin polarised DFT)
   LREAL = .FALSE.       (Projection operators: automatic)
   ENCUT = 520        (Cut-off energy for plane wave basis set, in eV)
   PREC = A       (Precision level)
   LWAVE = .FALSE.        (Write WAVECAR or not)
   LCHARG = .FALSE.        (Write CHGCAR or not)
   ADDGRID = .TRUE.        (Increase grid
   KSPACING = 0.2000
   KGAMMA = .FALSE.
   IVDW = 12
   ISMEAR = 0            (Gaussian smearing
   SIGMA = 0.05         (Smearing value in eV
   NELM = 200           (Max electronic SCF steps)
   NELMIN = 6            (Min electronic SCF steps)
   EDIFF = 1E-08        (SCF energy convergence
   NSW = 0          (Max ionic steps)
   IBRION = -1            (Algorithm: 0-MD
   ISIF = 3           (Stress/relaxation: 2-Ions, 3-Shape/Ions/V, 4-Shape/Ions)
   EDIFFG = -1E-04        (Ionic convergence
   NCORE = 14

 POTCAR:    PAW_PBE C 08Apr2002
|           W    W    AA    RRRRR   N    N  II  N    N   GGGG   !!!           |
|           W    W   A  A   R    R  NN   N  II  NN   N  G    G  !!!           |
|           W    W  A    A  R    R  N N  N  II  N N  N  G       !!!           |
|           W WW W  AAAAAA  RRRRR   N  N N  II  N  N N  G  GGG   !            |
|           WW  WW  A    A  R   R   N   NN  II  N   NN  G    G                |
|           W    W  A    A  R    R  N    N  II  N    N   GGGG   !!!           |
|     For optimal performance we recommend to set                             |
|       NCORE = 2 up to number-of-cores-per-socket                            |
|     This setting can greatly improve the performance of VASP for DFT.       |
|     The default, NCORE=1 might be grossly inefficient on modern             |
|     multi-core architectures or massively parallel machines. Do your        |
|     Unfortunately you need to use the default for GW and RPA                |
|     calculations (for HF NCORE is supported but not extensively tested      |
|     yet).                                                                   |

 POTCAR:    PAW_PBE C 08Apr2002
   VRHFIN =C: s2p2

   TITEL  = PAW_PBE C 08Apr2002
   POMASS =   12.011; ZVAL   =    4.000    mass and valenz
   ENMAX  =  400.000; ENMIN  =  300.000 eV

  PAW_PBE C 08Apr2002                   :

 POSCAR: AB-stacked Graphene
  positions in direct lattice
  velocities in cartesian coordinates
 exchange correlation table for  LEXCH =        8
   RHO(1)=    0.500       N(1)  =     2000
   RHO(2)=  100.500       N(2)  =     4000

 ion  position               nearest neighbor table
   1  0.118  0.998  1.000-   2 1.42   2 1.42   2 1.42
   2  0.784  0.332  0.000-   1 1.42   1 1.42   1 1.42
   3  0.465  0.668  0.500-   4 1.42   4 1.42   4 1.42
   4  0.132  0.002  0.500-   3 1.42   3 1.42   3 1.42

  Warning from LATTYP: Monoclinic adjustment (A1->A3, A2->A1, A3->A2)!
  LATTYP: Found a base centered orthorhombic cell.
 ALAT       =     2.4664926102
 B/A-ratio  =     1.7321284541
 C/A-ratio  =     2.6758644939

  Lattice vectors:

 A1 = (   1.2335791197,   2.1359430323,  -0.0000000552)
 A2 = (  -2.4665805555,   0.0002435830,   0.0000000494)
 A3 = (  -0.0000000441,  -0.0000001059,   6.6000000000)

Analysis of symmetry for initial positions (statically):
 Subroutine PRICEL returns:
 Original cell was already a primitive cell.

 Routine SETGRP: Setting up the symmetry group for a
 base centered orthorhombic supercell.

 Subroutine GETGRP returns: Found  4 space group operations
 (whereof  2 operations were pure point group operations)
 out of a pool of  8 trial point group operations.

The static configuration has the point symmetry C_1h.
 The point group associated with its full space group is C_2h.

Analysis of symmetry for dynamics (positions and initial velocities):
 Subroutine PRICEL returns:
 Original cell was already a primitive cell.

 Routine SETGRP: Setting up the symmetry group for a
 base centered orthorhombic supercell.

 Subroutine GETGRP returns: Found  4 space group operations
 (whereof  2 operations were pure point group operations)
 out of a pool of  8 trial point group operations.

The dynamic configuration has the point symmetry C_1h.
 The point group associated with its full space group is C_2h.

 Subroutine INISYM returns: Found  4 space group operations
 (whereof  2 operations are pure point group operations),
 and found     1 'primitive' translations

                                     Primitive cell

  volume of cell :      34.7739

  direct lattice vectors                    reciprocal lattice vectors
     2.466580556 -0.000243583 -0.000000049     0.405442669  0.234020469  0.000000006
    -1.233001436  2.136186615 -0.000000006     0.000046231  0.468150580  0.000000008
    -0.000000044 -0.000000106  6.600000000     0.000000003  0.000000002  0.151515152

  length of vectors
     2.466580568  2.466492610  6.600000000     0.468133888  0.468150582  0.151515152

  position of ions in fractional coordinates (direct lattice)
     0.117794189  0.998254412  0.999999659
     0.784453271  0.331580559  0.000000223
     0.465038818  0.668419402  0.499999796
     0.131697875  0.001745627  0.500000322

  ion indices of the primitive-cell ions
   primitive index   ion index
                 1           1
                 2           2
                 3           3
                 4           4

 KPOINTS: K-Spacing Value to Generate K-Mesh: 0.03

Automatic generation of k-mesh.
 Grid dimensions read from file:
 generate k-points for:   18   18    5

 Generating k-lattice:

  Cartesian coordinates                     Fractional coordinates (reciprocal lattice)
     0.022524593  0.013001137  0.000000000     0.055555556 -0.000000000  0.000000000
     0.000002568  0.026008366  0.000000000     0.000000000  0.055555556  0.000000000
     0.000000001  0.000000000  0.030303030    -0.000000000 -0.000000000  0.200000000

  Length of vectors
     0.026007438  0.026008366  0.030303030

  Shift w.r.t. Gamma in fractional coordinates (k-lattice)
     0.000000000  0.000000000  0.000000000

 Subroutine IBZKPT returns following result:

 Found    492 irreducible k-points:

 Following reciprocal coordinates:
            Coordinates               Weight
  0.000000  0.000000  0.000000      1.000000
  0.055556  0.000000  0.000000      2.000000
  0.111111  0.000000 -0.000000      2.000000
  0.166667  0.000000 -0.000000      2.000000
  0.222222  0.000000  0.000000      2.000000
  0.277778  0.000000  0.000000      2.000000
  0.333333  0.000000 -0.000000      2.000000
  0.388889  0.000000 -0.000000      2.000000
  0.444444  0.000000  0.000000      2.000000
  0.500000  0.000000  0.000000      1.000000
 -0.000000  0.055556 -0.000000      2.000000
 -0.055556  0.055556 -0.000000      2.000000
  0.055556  0.055556  0.000000      2.000000
 -0.111111  0.055556 -0.000000      2.000000
  0.111111  0.055556  0.000000      2.000000
 -0.166667  0.055556 -0.000000      2.000000
  0.166667  0.055556 -0.000000      2.000000
 -0.222222  0.055556 -0.000000      2.000000
  0.222222  0.055556  0.000000      2.000000
 -0.277778  0.055556 -0.000000      2.000000
  0.277778  0.055556  0.000000      2.000000
 -0.333333  0.055556 -0.000000      2.000000
  0.333333  0.055556 -0.000000      2.000000
 -0.388889  0.055556  0.000000      2.000000
  0.388889  0.055556 -0.000000      2.000000
 -0.444444  0.055556 -0.000000      2.000000
  0.444444  0.055556  0.000000      2.000000
  0.500000  0.055556 -0.000000      2.000000
 -0.000000  0.111111 -0.000000      2.000000
 -0.111111  0.111111  0.000000      2.000000
  0.055556  0.111111  0.000000      2.000000
 -0.166667  0.111111  0.000000      2.000000
  0.111111  0.111111  0.000000      2.000000
 -0.222222  0.111111 -0.000000      2.000000
  0.166667  0.111111 -0.000000      2.000000
 -0.277778  0.111111  0.000000      2.000000
  0.222222  0.111111 -0.000000      2.000000
 -0.333333  0.111111  0.000000      2.000000
  0.277778  0.111111  0.000000      2.000000
 -0.388889  0.111111 -0.000000      2.000000
  0.333333  0.111111 -0.000000      2.000000
 -0.444444  0.111111  0.000000      2.000000
  0.388889  0.111111 -0.000000      2.000000
  0.500000  0.111111  0.000000      2.000000
  0.444444  0.111111  0.000000      2.000000
 -0.055556  0.111111 -0.000000      2.000000
 -0.000000  0.166667 -0.000000      2.000000
 -0.166667  0.166667 -0.000000      2.000000
  0.055556  0.166667  0.000000      2.000000
 -0.222222  0.166667 -0.000000      2.000000
  0.111111  0.166667  0.000000      2.000000
 -0.277778  0.166667 -0.000000      2.000000
  0.166667  0.166667 -0.000000      2.000000
 -0.333333  0.166667  0.000000      2.000000
  0.222222  0.166667 -0.000000      2.000000
 -0.388889  0.166667 -0.000000      2.000000
  0.277778  0.166667  0.000000      2.000000
 -0.444444  0.166667 -0.000000      2.000000
  0.333333  0.166667  0.000000      2.000000
  0.500000  0.166667 -0.000000      2.000000
[...]
 -0.333333  0.444444  0.400000      4.000000
 -0.111111  0.444444 -0.400000      4.000000
 -0.277778  0.444444  0.400000      4.000000
 -0.166667  0.444444 -0.400000      4.000000
 -0.222222  0.444444  0.400000      4.000000
 -0.000000  0.500000  0.400000      2.000000
  0.500000  0.500000 -0.400000      2.000000
  0.055556  0.500000  0.400000      4.000000
  0.444444  0.500000 -0.400000      4.000000
  0.111111  0.500000  0.400000      4.000000
  0.388889  0.500000 -0.400000      4.000000
  0.166667  0.500000  0.400000      4.000000
  0.333333  0.500000 -0.400000      4.000000
  0.222222  0.500000  0.400000      4.000000
  0.277778  0.500000 -0.400000      4.000000

 Following cartesian coordinates:
            Coordinates               Weight
  0.000000  0.000000  0.000000      1.000000
  0.022525  0.013001  0.000000      2.000000
  0.045049  0.026002  0.000000      2.000000
  0.067574  0.039003  0.000000      2.000000
  0.090098  0.052005  0.000000      2.000000
  0.112623  0.065006  0.000000      2.000000
  0.135148  0.078007  0.000000      2.000000
  0.157672  0.091008  0.000000      2.000000
  0.180197  0.104009  0.000000      2.000000
  0.202721  0.117010  0.000000      1.000000
  0.000003  0.026008  0.000000      2.000000
 -0.022522  0.013007  0.000000      2.000000
  0.022527  0.039010  0.000000      2.000000
 -0.045047  0.000006 -0.000000      2.000000
  0.045052  0.052011  0.000000      2.000000
 -0.067571 -0.012995 -0.000000      2.000000
  0.067576  0.065012  0.000000      2.000000
 -0.090096 -0.025996 -0.000000      2.000000
  0.090101  0.078013  0.000000      2.000000
 -0.112620 -0.038997 -0.000000      2.000000
  0.112626  0.091014  0.000000      2.000000
 -0.135145 -0.051998 -0.000000      2.000000
  0.135150  0.104015  0.000000      2.000000
 -0.157670 -0.065000 -0.000000      2.000000
  0.157675  0.117016  0.000000      2.000000
 -0.180194 -0.078001 -0.000000      2.000000
  0.180199  0.130017  0.000000      2.000000
  0.202724  0.143019  0.000000      2.000000
  0.000005  0.052017  0.000000      2.000000
 -0.045044  0.026014  0.000000      2.000000
[...]
  -0.33333333  0.05555556 -0.00000000       0.001
   0.33333333  0.05555556 -0.00000000       0.001
  -0.38888889  0.05555556  0.00000000       0.001
   0.38888889  0.05555556 -0.00000000       0.001
  -0.44444444  0.05555556 -0.00000000       0.001
   0.44444444  0.05555556  0.00000000       0.001
   0.50000000  0.05555556 -0.00000000       0.001
  -0.00000000  0.11111111 -0.00000000       0.001
  -0.11111111  0.11111111  0.00000000       0.001
   0.05555556  0.11111111  0.00000000       0.001
  -0.16666667  0.11111111  0.00000000       0.001
   0.11111111  0.11111111  0.00000000       0.001
  -0.22222222  0.11111111 -0.00000000       0.001
   0.16666667  0.11111111 -0.00000000       0.001
  -0.27777778  0.11111111  0.00000000       0.001
   0.22222222  0.11111111 -0.00000000       0.001
  -0.33333333  0.11111111  0.00000000       0.001
   0.27777778  0.11111111  0.00000000       0.001
  -0.38888889  0.11111111 -0.00000000       0.001
   0.33333333  0.11111111 -0.00000000       0.001
  -0.44444444  0.11111111  0.00000000       0.001
   0.38888889  0.11111111 -0.00000000       0.001
   0.50000000  0.11111111  0.00000000       0.001
   0.44444444  0.11111111  0.00000000       0.001
  -0.05555556  0.11111111 -0.00000000       0.001
  -0.00000000  0.16666667 -0.00000000       0.001
  -0.16666667  0.16666667 -0.00000000       0.001
   0.05555556  0.16666667  0.00000000       0.001
  -0.22222222  0.16666667 -0.00000000       0.001
   0.11111111  0.16666667  0.00000000       0.001
  -0.27777778  0.16666667 -0.00000000       0.001
   0.16666667  0.16666667 -0.00000000       0.001
  -0.33333333  0.16666667  0.00000000       0.001
   0.22222222  0.16666667 -0.00000000       0.001
  -0.38888889  0.16666667 -0.00000000       0.001
   0.27777778  0.16666667  0.00000000       0.001
  -0.44444444  0.16666667 -0.00000000       0.001
   0.33333333  0.16666667  0.00000000       0.001
   0.50000000  0.16666667 -0.00000000       0.001
[...]
  -0.33333333  0.44444444  0.40000000       0.002
  -0.11111111  0.44444444 -0.40000000       0.002
  -0.27777778  0.44444444  0.40000000       0.002
  -0.16666667  0.44444444 -0.40000000       0.002
  -0.22222222  0.44444444  0.40000000       0.002
  -0.00000000  0.50000000  0.40000000       0.001
   0.50000000  0.50000000 -0.40000000       0.001
   0.05555556  0.50000000  0.40000000       0.002
   0.44444444  0.50000000 -0.40000000       0.002
   0.11111111  0.50000000  0.40000000       0.002
   0.38888889  0.50000000 -0.40000000       0.002
   0.16666667  0.50000000  0.40000000       0.002
   0.33333333  0.50000000 -0.40000000       0.002
   0.22222222  0.50000000  0.40000000       0.002
   0.27777778  0.50000000 -0.40000000       0.002

 position of ions in fractional coordinates (direct lattice)
   0.11779419  0.99825441  0.99999966
   0.78445327  0.33158056  0.00000022
   0.46503882  0.66841940  0.49999980
   0.13169788  0.00174563  0.50000032

 position of ions in cartesian coordinates  (Angst):
  -0.94030031  2.13242891  6.59999773
   1.52607788  0.70812687  0.00000143
   0.32289360  1.42775525  3.29999863
   0.32269103  0.00369685  3.30000212

 k-point   1 :   0.0000 0.0000 0.0000  plane waves:     967
 k-point   2 :   0.0556 0.0000 0.0000  plane waves:     944
 k-point   3 :   0.1111 0.0000-0.0000  plane waves:     940
 k-point   4 :   0.1667 0.0000-0.0000  plane waves:     942
 k-point   5 :   0.2222 0.0000 0.0000  plane waves:     944
 k-point   6 :   0.2778 0.0000 0.0000  plane waves:     942
 k-point   7 :   0.3333 0.0000-0.0000  plane waves:     934
 k-point   8 :   0.3889 0.0000-0.0000  plane waves:     930
 k-point   9 :   0.4444 0.0000 0.0000  plane waves:     928
 k-point  10 :   0.5000 0.0000 0.0000  plane waves:     920
 k-point  11 :  -0.0000 0.0556-0.0000  plane waves:     948
 k-point  12 :  -0.0556 0.0556-0.0000  plane waves:     948
 k-point  13 :   0.0556 0.0556 0.0000  plane waves:     941
 k-point  14 :  -0.1111 0.0556-0.0000  plane waves:     941
 k-point  15 :   0.1111 0.0556 0.0000  plane waves:     941
 k-point  16 :  -0.1667 0.0556-0.0000  plane waves:     941
 k-point  17 :   0.1667 0.0556-0.0000  plane waves:     944
 k-point  18 :  -0.2222 0.0556-0.0000  plane waves:     944
 k-point  19 :   0.2222 0.0556 0.0000  plane waves:     946
 k-point  20 :  -0.2778 0.0556-0.0000  plane waves:     946
 k-point  21 :   0.2778 0.0556 0.0000  plane waves:     944
 k-point  22 :  -0.3333 0.0556-0.0000  plane waves:     944
 k-point  23 :   0.3333 0.0556-0.0000  plane waves:     938
 k-point  24 :  -0.3889 0.0556 0.0000  plane waves:     938
 k-point  25 :   0.3889 0.0556-0.0000  plane waves:     927
 k-point  26 :  -0.4444 0.0556-0.0000  plane waves:     927
 k-point  27 :   0.4444 0.0556 0.0000  plane waves:     936
 k-point  28 :   0.5000 0.0556-0.0000  plane waves:     936
 k-point  29 :  -0.0000 0.1111-0.0000  plane waves:     940
 k-point  30 :  -0.1111 0.1111 0.0000  plane waves:     940
 k-point  31 :   0.0556 0.1111 0.0000  plane waves:     941
 k-point  32 :  -0.1667 0.1111 0.0000  plane waves:     941
 k-point  33 :   0.1111 0.1111 0.0000  plane waves:     939
 k-point  34 :  -0.2222 0.1111-0.0000  plane waves:     939
 k-point  35 :   0.1667 0.1111-0.0000  plane waves:     943
 k-point  36 :  -0.2778 0.1111 0.0000  plane waves:     943
 k-point  37 :   0.2222 0.1111-0.0000  plane waves:     940
 k-point  38 :  -0.3333 0.1111 0.0000  plane waves:     940
 k-point  39 :   0.2778 0.1111 0.0000  plane waves:     946
 k-point  40 :  -0.3889 0.1111-0.0000  plane waves:     946
 k-point  41 :   0.3333 0.1111-0.0000  plane waves:     942
 k-point  42 :  -0.4444 0.1111 0.0000  plane waves:     942
 k-point  43 :   0.3889 0.1111-0.0000  plane waves:     939
 k-point  44 :   0.5000 0.1111 0.0000  plane waves:     939
 k-point  45 :   0.4444 0.1111 0.0000  plane waves:     940
 k-point  46 :  -0.0556 0.1111-0.0000  plane waves:     941
 k-point  47 :  -0.0000 0.1667-0.0000  plane waves:     942
 k-point  48 :  -0.1667 0.1667-0.0000  plane waves:     942
 k-point  49 :   0.0556 0.1667 0.0000  plane waves:     944
 k-point  50 :  -0.2222 0.1667-0.0000  plane waves:     944
 k-point  51 :   0.1111 0.1667 0.0000  plane waves:     943
 k-point  52 :  -0.2778 0.1667-0.0000  plane waves:     943
 k-point  53 :   0.1667 0.1667-0.0000  plane waves:     945
 k-point  54 :  -0.3333 0.1667 0.0000  plane waves:     945
 k-point  55 :   0.2222 0.1667-0.0000  plane waves:     933
 k-point  56 :  -0.3889 0.1667-0.0000  plane waves:     933
 k-point  57 :   0.2778 0.1667 0.0000  plane waves:     928
 k-point  58 :  -0.4444 0.1667-0.0000  plane waves:     928
 k-point  59 :   0.3333 0.1667 0.0000  plane waves:     933
 k-point  60 :   0.5000 0.1667-0.0000  plane waves:     933
[...]
 k-point 478 :  -0.3333 0.4444 0.4000  plane waves:     925
 k-point 479 :  -0.1111 0.4444-0.4000  plane waves:     925
 k-point 480 :  -0.2778 0.4444 0.4000  plane waves:     932
 k-point 481 :  -0.1667 0.4444-0.4000  plane waves:     932
 k-point 482 :  -0.2222 0.4444 0.4000  plane waves:     933
 k-point 483 :  -0.0000 0.5000 0.4000  plane waves:     930
 k-point 484 :   0.5000 0.5000-0.4000  plane waves:     930
 k-point 485 :   0.0556 0.5000 0.4000  plane waves:     931
 k-point 486 :   0.4444 0.5000-0.4000  plane waves:     931
 k-point 487 :   0.1111 0.5000 0.4000  plane waves:     925
 k-point 488 :   0.3889 0.5000-0.4000  plane waves:     925
 k-point 489 :   0.1667 0.5000 0.4000  plane waves:     931
 k-point 490 :   0.3333 0.5000-0.4000  plane waves:     931
 k-point 491 :   0.2222 0.5000 0.4000  plane waves:     927
 k-point 492 :   0.2778 0.5000-0.4000  plane waves:     927

 maximum and minimum number of plane-waves per node :        75       56

 maximum number of plane-waves:       967
 maximum index in each direction:
   IXMAX=    5   IYMAX=    4   IZMAX=   12
   IXMIN=   -5   IYMIN=   -5   IZMIN=  -12

 parallel 3D FFT for wavefunctions:
    minimum data exchange during FFTs selected (reduces bandwidth)
 parallel 3D FFT for charge:
    minimum data exchange during FFTs selected (reduces bandwidth)

 Broyden mixing: mesh for mixing (old mesh)
   NGX =  9   NGY =  9   NGZ = 25
  (NGX  = 36   NGY  = 36   NGZ  =100)
  gives a total of   2025 points

 initial charge density was supplied:
 charge density of overlapping atoms calculated
 number of electron      16.0000000 magnetization
 keeping initial charge density in first step

 Maximum index for augmentation-charges         2121 (set IRDMAX)

 First call to EWALD:  gamma=   0.543
 Maximum number of real-space cells 4x 4x 2
 Maximum number of reciprocal cells 2x 2x 5

--------------------------------------- Iteration      1(   1)  ---------------------------------------

 eigenvalue-minimisations  : 11824
 total energy-change (2. order) : 0.4106692E+02  (-0.7862329E+03)
 number of electron      16.0000000 magnetization
 augmentation part       16.0000000 magnetization

 Free energy of the ion-electron system (eV)
  alpha Z        PSCENC =        37.79692908
  Ewald energy   TEWEN  =      -470.82421457
  -Hartree energ DENC   =      -142.01861594
  -exchange      EXHF   =         0.00000000
  -V(xc)+E(xc)   XCENC  =        53.02023067
  PAW double counting   =       434.08818552     -436.36580876
  entropy T*S    EENTRO =        -0.00058187
  eigenvalues    EBANDS =       -23.22478230
  atomic energy  EATOM  =       588.59557325
  Solvation  Ediel_sol  =         0.00000000
  free energy    TOTEN  =        41.06691508 eV

  energy without entropy =       41.06749695  energy(sigma->0) =       41.06720602

[...]

 eigenvalue-minimisations  : 16268
 total energy-change (2. order) :-0.7692141E+02  (-0.7121165E+02)
 number of electron      16.0000000 magnetization
 augmentation part       16.0000000 magnetization

[...]

 Broyden mixing:
  rms(total) = 0.89093E+00    rms(broyden)= 0.89082E+00
  rms(prec ) = 0.13350E+01
  weight for this iteration     100.00

[...]

 eigenvalues of (default mixing * dielectric matrix)
  average eigenvalue GAMMA=   2.1956
  2.1956

[...]

 eigenvalue-minimisations  :  9944
 total energy-change (2. order) : 0.2981392E-07  (-0.1639205E-09)
 number of electron      16.0000000 magnetization
 augmentation part        0.3838695 magnetization

 Broyden mixing:
  rms(total) = 0.11089E-04    rms(broyden)= 0.10990E-04
  rms(prec ) = 0.12548E-04
  weight for this iteration     100.00

[...]

 Broyden mixing:
  rms(total) = 0.28809E-05    rms(broyden)= 0.24745E-05
  rms(prec ) = 0.26821E-05
  weight for this iteration     100.00
  WARNING: grid for Broyden might be to small

 eigenvalues of (default mixing * dielectric matrix)
  average eigenvalue GAMMA=   1.8295
  3.1001  2.7554  2.5124  2.5124  1.9397  0.9674  0.9674  1.0302  1.3067  1.2037

[...]

--------------------------------------- Iteration      1(  16)  ---------------------------------------

 eigenvalue-minimisations  :  9496
 total energy-change (2. order) :-0.3240530E-08  (-0.4459833E-11)
 number of electron      16.0000000 magnetization
 augmentation part        0.3838694 magnetization

 Free energy of the ion-electron system (eV)
  alpha Z        PSCENC =        37.79692908
  Ewald energy   TEWEN  =      -470.82421457
  -Hartree energ DENC   =      -176.11128716
  -exchange      EXHF   =         0.00000000
  -V(xc)+E(xc)   XCENC  =        55.20073757
  PAW double counting   =      1669.30167574    -1672.03799207
  entropy T*S    EENTRO =        -0.00030256
  eigenvalues    EBANDS =       -68.74519502
  atomic energy  EATOM  =       588.59557325
  Solvation  Ediel_sol  =         0.00000000
  free energy    TOTEN  =       -36.82407573 eV

  energy without entropy =      -36.82377317  energy(sigma->0) =      -36.82392445

 average (electrostatic) potential at core
  the test charge radii are     0.6991
  (the norm of the test charge is              1.0000)
       1 -50.6048       2 -50.5673       3 -50.5673       4 -50.6048

 E-fermi :   4.7970     XC(G=0): -10.4331     alpha+bet :-11.5285

 Fermi energy:         4.7970341046

 k-point     1 :       0.0000    0.0000    0.0000
  band No.  band energies     occupation
      1     -14.8415      2.00000
      2     -14.5004      2.00000
      3      -3.7662      2.00000
      4      -1.6299      2.00000
      5       1.8040      2.00000
      6       1.8062      2.00000
      7       1.8263      2.00000
      8       1.8276      2.00000
      9       9.2508      0.00000
     10      13.1262      0.00000
     11      13.1336      0.00000
     12      13.1883      0.00000

[...]

 k-point   492 :       0.2778    0.5000   -0.4000
  band No.  band energies     occupation
      1     -10.4114      2.00000
      2     -10.3336      2.00000
      3      -5.8444      2.00000
      4      -5.8083      2.00000
      5      -3.9634      2.00000
      6      -3.9363      2.00000
      7       1.8417      2.00000
      8       2.3212      2.00000
      9       7.4781      0.00000
     10       7.6770      0.00000
     11      15.2008      0.00000
     12      15.6395      0.00000

 soft charge-density along one line, spin component           1
         0         1         2         3         4         5         6         7         8         9
 total charge-density along one line

------------------------ aborting loop because EDIFF is reached ----------------------------------------

         DFTD3 V3.0 Rev 1
 IVDW         = 12
 DF pbe
 parameters
 VDW_S6       =    1.0000
 VDW_S8       =    0.7875
 VDW_A1       =    0.4289
 VDW_A2       =    4.4407
 k1-k3        =   16.0000    1.3333   -4.0000
 VDW_RADIUS   =   50.2022 A
 VDW_CNRADIUS =   21.1671 A
 Edisp (eV)   -0.63766

 E6    (eV) :    -0.4566
 E8    (eV) :    -0.1811
 % E8        : 28.40

  FORCE on cell =-STRESS in cart. coord.  units (eV):
  Direction    XX          YY          ZZ          XY          YZ          ZX
  Alpha Z    37.79693    37.79693    37.79693
  Ewald      66.98919    66.97629  -604.79020     0.01331    -0.00001    -0.00001
  Hartree   153.56332   153.55872  -131.01073     0.00860    -0.00000    -0.00001
  E(xc)     -59.52654   -59.52665   -61.52598     0.00011    -0.00000    -0.00000
  Local    -423.13011  -423.11347   499.45945    -0.02291     0.00002     0.00002
  n-local   -14.22450   -14.22536   -13.04104     0.00058     0.01081     0.01789
  augment    -1.55766    -1.55760    -1.43584     0.00002    -0.00000    -0.00000
  Kinetic   240.17359   240.17739   275.45657     0.00215    -0.13935    -0.23381
  Fock        0.00000     0.00000     0.00000     0.00000     0.00000     0.00000
  vdW        -0.09586    -0.09580    -0.75604    -0.00001    -0.00000    -0.00000
  Total      -0.01165    -0.00956     0.15312     0.00185    -0.00000    -0.00000
  in kB      -0.53672    -0.44047     7.05500     0.08529    -0.00000    -0.00000

 VOLUME and BASIS-vectors are now :
  energy-cutoff  :      520.00
  volume of cell :       34.77
      direct lattice vectors                 reciprocal lattice vectors
     2.466580556 -0.000243583 -0.000000049     0.405442669  0.234020469  0.000000006
    -1.233001436  2.136186615 -0.000000006     0.000046231  0.468150580  0.000000008
    -0.000000044 -0.000000106  6.600000000     0.000000003  0.000000002  0.151515152

  length of vectors
     2.466580568  2.466492610  6.600000000     0.468133888  0.468150582  0.151515152

 FORCES acting on ions
    electron-ion (+dipol)            ewald-force                    non-local-force                 convergence-correction
   -.395E-03 -.190E-02 0.653E-03   0.187E-02 0.212E-02 -.572E-03   -.391E-03 -.268E-03 0.117E-10   -.634E-06 0.556E-06 -.150E-05
   -.352E-02 0.128E-02 -.150E-02   0.258E-02 -.881E-03 0.835E-03   0.122E-02 0.493E-03 -.315E-10   0.477E-06 -.324E-06 -.150E-05
   0.344E-02 -.738E-03 0.145E-03   -.260E-02 0.911E-03 -.787E-03   -.122E-02 -.493E-03 0.315E-10   -.477E-06 0.324E-06 0.150E-05
   0.350E-03 0.230E-02 -.186E-02   -.184E-02 -.215E-02 0.524E-03   0.391E-03 0.268E-03 -.117E-10   0.634E-06 -.556E-06 0.150E-05
   -.123E-03 0.951E-03 -.256E-02   0.192E-14 0.293E-14 0.434E-18   -.217E-18 0.108E-18 0.644E-19   0.313E-11 -.385E-10 0.355E-08

 POSITION                                       TOTAL-FORCE (eV/Angst)
     -0.94030      2.13243      6.60000         0.001072     -0.000235     -0.000000
      1.52608      0.70813      0.00000         0.000360      0.000616     -0.000000
      0.32289      1.42776      3.30000        -0.000360     -0.000616      0.000000
      0.32269      0.00370      3.30000        -0.001072      0.000235      0.000000
    total drift:                               -0.000123      0.000951     -0.002558

  FREE ENERGIE OF THE ION-ELECTRON SYSTEM (eV)
  free  energy   TOTEN  =       -37.46173148 eV

  energy  without entropy=      -37.46142893  energy(sigma->0) =      -37.46158020