 vasp.6.3.1 04May22 (build Aug 04 2022 13:02:54) complex

 executed on             LinuxIFC date 2024.11.24  12:58:22

 INCAR:
   ISTART = 1            (Read existing wavefunction
   ISPIN = 1            (Non-Spin polarised DFT)
   LREAL = .FALSE.       (Projection operators: automatic)
   ENCUT = 520        (Cut-off energy for plane wave basis set, in eV)
   PREC = A       (Precision level)
   LWAVE = .FALSE.        (Write WAVECAR or not)
   LCHARG = .FALSE.        (Write CHGCAR or not)
   ADDGRID = .TRUE.        (Increase grid
   KSPACING = 0.2000
   KGAMMA = .FALSE.
   IVDW = 12
   ISMEAR = 0            (Gaussian smearing
   SIGMA = 0.05         (Smearing value in eV
   NELM = 200           (Max electronic SCF steps)
   NELMIN = 6            (Min electronic SCF steps)
   EDIFF = 1E-08        (SCF energy convergence
   NSW = 0          (Max ionic steps)
   IBRION = -1            (Algorithm: 0-MD
   ISIF = 3           (Stress/relaxation: 2-Ions, 3-Shape/Ions/V, 4-Shape/Ions)
   EDIFFG = -1E-04        (Ionic convergence
   NCORE = 14

 POTCAR:    PAW_PBE C 08Apr2002
|           W    W    AA    RRRRR   N    N  II  N    N   GGGG   !!!           |
|           W    W   A  A   R    R  NN   N  II  NN   N  G    G  !!!           |
|           W    W  A    A  R    R  N N  N  II  N N  N  G       !!!           |
|           W WW W  AAAAAA  RRRRR   N  N N  II  N  N N  G  GGG   !            |
|           WW  WW  A    A  R   R   N   NN  II  N   NN  G    G                |
|           W    W  A    A  R    R  N    N  II  N    N   GGGG   !!!           |
|     For optimal performance we recommend to set                             |
|       NCORE = 2 up to number-of-cores-per-socket                            |
|     This setting can greatly improve the performance of VASP for DFT.       |
|     The default, NCORE=1 might be grossly inefficient on modern             |
|     multi-core architectures or massively parallel machines. Do your        |
|     Unfortunately you need to use the default for GW and RPA                |
|     calculations (for HF NCORE is supported but not extensively tested      |
|     yet).                                                                   |

 POTCAR:    PAW_PBE C 08Apr2002
   VRHFIN =C: s2p2

   TITEL  = PAW_PBE C 08Apr2002
   POMASS =   12.011; ZVAL   =    4.000    mass and valenz
   ENMAX  =  400.000; ENMIN  =  300.000 eV

  PAW_PBE C 08Apr2002                   :

 POSCAR: AA-stacked Graphene
  positions in direct lattice
  velocities in cartesian coordinates
 exchange correlation table for  LEXCH =        8
   RHO(1)=    0.500       N(1)  =     2000
   RHO(2)=  100.500       N(2)  =     4000

 ion  position               nearest neighbor table
   1  1.000  1.000  0.000-   2 1.42   2 1.42   2 1.42
   2  0.666  0.333  0.000-   1 1.42   1 1.42   1 1.42
   3  1.000  1.000  0.500-   4 1.42   4 1.42   4 1.42
   4  0.666  0.333  0.500-   3 1.42   3 1.42   3 1.42

  LATTYP: Found a hexagonal cell.
 ALAT       =     2.4663032719
 C/A-ratio  =     3.0815350596

  Lattice vectors:

 A1 = (   2.4663032553,  -0.0002866376,   0.0000000000)
 A2 = (  -1.2328986900,   2.1360225972,   0.0000000000)
 A3 = (   0.0000000000,   0.0000000000,   7.6000000000)

Analysis of symmetry for initial positions (statically):
 Subroutine PRICEL returns following result:

[...]

   2 primitive cells build up your supercell.

 Routine SETGRP: Setting up the symmetry group for a
 hexagonal supercell.

 Subroutine GETGRP returns: Found 24 space group operations
 (whereof  2 operations were pure point group operations)
 out of a pool of 24 trial point group operations.

The static configuration has the point symmetry C_1h.
 The point group associated with its full space group is D_6h.

Analysis of symmetry for dynamics (positions and initial velocities):
 Subroutine PRICEL returns following result:

  LATTYP: Found a hexagonal cell.
 ALAT       =     2.4663032719
 C/A-ratio  =     1.5407675298

  Lattice vectors:

 A1 = (   2.4663032553,  -0.0002866376,   0.0000000000)
 A2 = (  -1.2328986900,   2.1360225972,   0.0000000000)
 A3 = (   0.0000000000,   0.0000000000,   3.8000000000)

   2 primitive cells build up your supercell.

 Routine SETGRP: Setting up the symmetry group for a
 hexagonal supercell.

 Subroutine GETGRP returns: Found 24 space group operations
 (whereof  2 operations were pure point group operations)
 out of a pool of 24 trial point group operations.

The dynamic configuration has the point symmetry C_1h.
 The point group associated with its full space group is D_6h.

 Subroutine INISYM returns: Found 24 space group operations
 (whereof  2 operations are pure point group operations),
 and found     2 'primitive' translations

                                     Primitive cell

  volume of cell :      20.0174

  direct lattice vectors                    reciprocal lattice vectors
     2.466303255 -0.000286638  0.000000000     0.405492344  0.234047608  0.000000000
    -1.232898690  2.136022597  0.000000000     0.000054414  0.468191249  0.000000000
     0.000000000  0.000000000  3.800000000     0.000000000  0.000000000  0.263157895

  length of vectors
     2.466303272  2.466299194  3.800000000     0.468190478  0.468191252  0.263157895

  position of ions in fractional coordinates (direct lattice)
     0.999825905  0.999922181  0.000000000
     0.666491690  0.333254731  0.000000000

  ion indices of the primitive-cell ions
   primitive index   ion index
                 1           1
                 2           2

 KPOINTS: K-Spacing Value to Generate K-Mesh: 0.03

Automatic generation of k-mesh.
 Grid dimensions read from file:
 generate k-points for:   18   18    4

 Generating k-lattice:

  Cartesian coordinates                     Fractional coordinates (reciprocal lattice)
     0.022527352  0.013002645  0.000000000     0.055555556  0.000000000  0.000000000
     0.000003023  0.026010625  0.000000000    -0.000000000  0.055555556  0.000000000
     0.000000000  0.000000000  0.032894737     0.000000000  0.000000000  0.250000000

  Length of vectors
     0.026010582  0.026010625  0.032894737

  Shift w.r.t. Gamma in fractional coordinates (k-lattice)
     0.000000000  0.000000000  0.000000000

 Subroutine IBZKPT returns following result:

 Found    111 irreducible k-points:

 Following reciprocal coordinates:
            Coordinates               Weight
  0.000000  0.000000  0.000000      1.000000
  0.055556 -0.000000  0.000000      6.000000
  0.111111 -0.000000  0.000000      6.000000
  0.166667  0.000000  0.000000      6.000000
  0.222222  0.000000  0.000000      6.000000
  0.277778 -0.000000  0.000000      6.000000
  0.333333 -0.000000  0.000000      6.000000
  0.388889 -0.000000  0.000000      6.000000
  0.444444  0.000000  0.000000      6.000000
  0.500000 -0.000000  0.000000      3.000000
  0.055556  0.055556  0.000000      6.000000
  0.111111  0.055556  0.000000     12.000000
  0.166667  0.055556  0.000000     12.000000
  0.222222  0.055556  0.000000     12.000000
  0.277778  0.055556  0.000000     12.000000
  0.333333  0.055556  0.000000     12.000000
  0.388889  0.055556  0.000000     12.000000
  0.444444  0.055556  0.000000     12.000000
  0.111111  0.111111  0.000000      6.000000
  0.166667  0.111111  0.000000     12.000000
  0.222222  0.111111  0.000000     12.000000
  0.277778  0.111111  0.000000     12.000000
  0.333333  0.111111  0.000000     12.000000
  0.388889  0.111111  0.000000     12.000000
  0.444444  0.111111  0.000000      6.000000
  0.166667  0.166667  0.000000      6.000000
  0.222222  0.166667  0.000000     12.000000
  0.277778  0.166667  0.000000     12.000000
  0.333333  0.166667  0.000000     12.000000
  0.388889  0.166667  0.000000     12.000000
  0.222222  0.222222  0.000000      6.000000
  0.277778  0.222222  0.000000     12.000000
  0.333333  0.222222  0.000000     12.000000
  0.388889  0.222222  0.000000      6.000000
  0.277778  0.277778  0.000000      6.000000
  0.333333  0.277778  0.000000     12.000000
  0.333333  0.333333  0.000000      2.000000
  0.000000  0.000000  0.250000      2.000000
  0.055556 -0.000000  0.250000     12.000000
  0.111111 -0.000000  0.250000     12.000000
  0.166667  0.000000  0.250000     12.000000
  0.222222  0.000000  0.250000     12.000000
  0.277778 -0.000000  0.250000     12.000000
  0.333333 -0.000000  0.250000     12.000000
  0.388889 -0.000000  0.250000     12.000000
  0.444444  0.000000  0.250000     12.000000
  0.500000 -0.000000  0.250000      6.000000
  0.055556  0.055556  0.250000     12.000000
  0.111111  0.055556  0.250000     24.000000
  0.166667  0.055556  0.250000     24.000000
  0.222222  0.055556  0.250000     24.000000
  0.277778  0.055556  0.250000     24.000000
  0.333333  0.055556  0.250000     24.000000
  0.388889  0.055556  0.250000     24.000000
  0.444444  0.055556  0.250000     24.000000
  0.111111  0.111111  0.250000     12.000000
  0.166667  0.111111  0.250000     24.000000
  0.222222  0.111111  0.250000     24.000000
  0.277778  0.111111  0.250000     24.000000
  0.333333  0.111111  0.250000     24.000000
[...]
  0.333333  0.111111  0.500000     12.000000
  0.388889  0.111111  0.500000     12.000000
  0.444444  0.111111  0.500000      6.000000
  0.166667  0.166667  0.500000      6.000000
  0.222222  0.166667  0.500000     12.000000
  0.277778  0.166667  0.500000     12.000000
  0.333333  0.166667  0.500000     12.000000
  0.388889  0.166667  0.500000     12.000000
  0.222222  0.222222  0.500000      6.000000
  0.277778  0.222222  0.500000     12.000000
  0.333333  0.222222  0.500000     12.000000
  0.388889  0.222222  0.500000      6.000000
  0.277778  0.277778  0.500000      6.000000
  0.333333  0.277778  0.500000     12.000000
  0.333333  0.333333  0.500000      2.000000

 Following cartesian coordinates:
            Coordinates               Weight
  0.000000  0.000000  0.000000      1.000000
  0.022527  0.013003  0.000000      6.000000
  0.045055  0.026005  0.000000      6.000000
  0.067582  0.039008  0.000000      6.000000
  0.090109  0.052011  0.000000      6.000000
  0.112637  0.065013  0.000000      6.000000
  0.135164  0.078016  0.000000      6.000000
  0.157691  0.091019  0.000000      6.000000
  0.180219  0.104021  0.000000      6.000000
  0.202746  0.117024  0.000000      3.000000
  0.022530  0.039013  0.000000      6.000000
  0.045058  0.052016  0.000000     12.000000
  0.067585  0.065019  0.000000     12.000000
  0.090112  0.078021  0.000000     12.000000
  0.112640  0.091024  0.000000     12.000000
  0.135167  0.104026  0.000000     12.000000
  0.157694  0.117029  0.000000     12.000000
  0.180222  0.130032  0.000000     12.000000
  0.045061  0.078027  0.000000      6.000000
  0.067588  0.091029  0.000000     12.000000
  0.090115  0.104032  0.000000     12.000000
  0.112643  0.117034  0.000000     12.000000
  0.135170  0.130037  0.000000     12.000000
  0.157698  0.143040  0.000000     12.000000
  0.180225  0.156042  0.000000      6.000000
  0.067591  0.117040  0.000000      6.000000
  0.090118  0.130042  0.000000     12.000000
  0.112646  0.143045  0.000000     12.000000
  0.135173  0.156048  0.000000     12.000000
  0.157701  0.169050  0.000000     12.000000
[...]
   0.44444444  0.05555556  0.00000000       0.009
   0.11111111  0.11111111  0.00000000       0.005
   0.16666667  0.11111111  0.00000000       0.009
   0.22222222  0.11111111  0.00000000       0.009
   0.27777778  0.11111111  0.00000000       0.009
   0.33333333  0.11111111  0.00000000       0.009
   0.38888889  0.11111111  0.00000000       0.009
   0.44444444  0.11111111  0.00000000       0.005
   0.16666667  0.16666667  0.00000000       0.005
   0.22222222  0.16666667  0.00000000       0.009
   0.27777778  0.16666667  0.00000000       0.009
   0.33333333  0.16666667  0.00000000       0.009
   0.38888889  0.16666667  0.00000000       0.009
   0.22222222  0.22222222  0.00000000       0.005
   0.27777778  0.22222222  0.00000000       0.009
   0.33333333  0.22222222  0.00000000       0.009
   0.38888889  0.22222222  0.00000000       0.005
   0.27777778  0.27777778  0.00000000       0.005
   0.33333333  0.27777778  0.00000000       0.009
   0.33333333  0.33333333  0.00000000       0.002
   0.00000000  0.00000000  0.25000000       0.002
   0.05555556 -0.00000000  0.25000000       0.009
   0.11111111 -0.00000000  0.25000000       0.009
   0.16666667  0.00000000  0.25000000       0.009
   0.22222222  0.00000000  0.25000000       0.009
   0.27777778 -0.00000000  0.25000000       0.009
   0.33333333 -0.00000000  0.25000000       0.009
   0.38888889 -0.00000000  0.25000000       0.009
   0.44444444  0.00000000  0.25000000       0.009
   0.50000000 -0.00000000  0.25000000       0.005
   0.05555556  0.05555556  0.25000000       0.009
   0.11111111  0.05555556  0.25000000       0.019
   0.16666667  0.05555556  0.25000000       0.019
   0.22222222  0.05555556  0.25000000       0.019
   0.27777778  0.05555556  0.25000000       0.019
   0.33333333  0.05555556  0.25000000       0.019
   0.38888889  0.05555556  0.25000000       0.019
   0.44444444  0.05555556  0.25000000       0.019
   0.11111111  0.11111111  0.25000000       0.009
   0.16666667  0.11111111  0.25000000       0.019
   0.22222222  0.11111111  0.25000000       0.019
   0.27777778  0.11111111  0.25000000       0.019
   0.33333333  0.11111111  0.25000000       0.019
[...]
   0.33333333  0.11111111  0.50000000       0.009
   0.38888889  0.11111111  0.50000000       0.009
   0.44444444  0.11111111  0.50000000       0.005
   0.16666667  0.16666667  0.50000000       0.005
   0.22222222  0.16666667  0.50000000       0.009
   0.27777778  0.16666667  0.50000000       0.009
   0.33333333  0.16666667  0.50000000       0.009
   0.38888889  0.16666667  0.50000000       0.009
   0.22222222  0.22222222  0.50000000       0.005
   0.27777778  0.22222222  0.50000000       0.009
   0.33333333  0.22222222  0.50000000       0.009
   0.38888889  0.22222222  0.50000000       0.005
   0.27777778  0.27777778  0.50000000       0.005
   0.33333333  0.27777778  0.50000000       0.009
   0.33333333  0.33333333  0.50000000       0.002

 position of ions in fractional coordinates (direct lattice)
   0.99982591  0.99992218  0.00000000
   0.66649169  0.33325473  0.00000000
   0.99982591  0.99992218  0.50000000
   0.66649169  0.33325473  0.50000000

 position of ions in cartesian coordinates  (Angst):
   1.23307114  2.13556979  0.00000000
   1.23290130  0.71164859  0.00000000
   1.23307114  2.13556979  3.80000000
   1.23290130  0.71164859  3.80000000

 k-point   1 :   0.0000 0.0000 0.0000  plane waves:    1067
 k-point   2 :   0.0556-0.0000 0.0000  plane waves:    1086
 k-point   3 :   0.1111-0.0000 0.0000  plane waves:    1090
 k-point   4 :   0.1667 0.0000 0.0000  plane waves:    1088
 k-point   5 :   0.2222 0.0000 0.0000  plane waves:    1088
 k-point   6 :   0.2778-0.0000 0.0000  plane waves:    1094
 k-point   7 :   0.3333-0.0000 0.0000  plane waves:    1084
 k-point   8 :   0.3889-0.0000 0.0000  plane waves:    1070
 k-point   9 :   0.4444 0.0000 0.0000  plane waves:    1076
 k-point  10 :   0.5000-0.0000 0.0000  plane waves:    1068
 k-point  11 :   0.0556 0.0556 0.0000  plane waves:    1091
 k-point  12 :   0.1111 0.0556 0.0000  plane waves:    1079
 k-point  13 :   0.1667 0.0556 0.0000  plane waves:    1094
 k-point  14 :   0.2222 0.0556 0.0000  plane waves:    1086
 k-point  15 :   0.2778 0.0556 0.0000  plane waves:    1086
 k-point  16 :   0.3333 0.0556 0.0000  plane waves:    1084
 k-point  17 :   0.3889 0.0556 0.0000  plane waves:    1077
 k-point  18 :   0.4444 0.0556 0.0000  plane waves:    1072
 k-point  19 :   0.1111 0.1111 0.0000  plane waves:    1089
 k-point  20 :   0.1667 0.1111 0.0000  plane waves:    1091
 k-point  21 :   0.2222 0.1111 0.0000  plane waves:    1086
 k-point  22 :   0.2778 0.1111 0.0000  plane waves:    1084
 k-point  23 :   0.3333 0.1111 0.0000  plane waves:    1070
 k-point  24 :   0.3889 0.1111 0.0000  plane waves:    1073
 k-point  25 :   0.4444 0.1111 0.0000  plane waves:    1074
 k-point  26 :   0.1667 0.1667 0.0000  plane waves:    1083
 k-point  27 :   0.2222 0.1667 0.0000  plane waves:    1077
 k-point  28 :   0.2778 0.1667 0.0000  plane waves:    1072
 k-point  29 :   0.3333 0.1667 0.0000  plane waves:    1073
 k-point  30 :   0.3889 0.1667 0.0000  plane waves:    1069
 k-point  31 :   0.2222 0.2222 0.0000  plane waves:    1065
 k-point  32 :   0.2778 0.2222 0.0000  plane waves:    1069
 k-point  33 :   0.3333 0.2222 0.0000  plane waves:    1068
 k-point  34 :   0.3889 0.2222 0.0000  plane waves:    1062
 k-point  35 :   0.2778 0.2778 0.0000  plane waves:    1065
 k-point  36 :   0.3333 0.2778 0.0000  plane waves:    1062
 k-point  37 :   0.3333 0.3333 0.0000  plane waves:    1074
 k-point  38 :   0.0000 0.0000 0.2500  plane waves:    1078
 k-point  39 :   0.0556-0.0000 0.2500  plane waves:    1079
 k-point  40 :   0.1111-0.0000 0.2500  plane waves:    1091
 k-point  41 :   0.1667 0.0000 0.2500  plane waves:    1090
 k-point  42 :   0.2222 0.0000 0.2500  plane waves:    1097
 k-point  43 :   0.2778-0.0000 0.2500  plane waves:    1088
 k-point  44 :   0.3333-0.0000 0.2500  plane waves:    1085
 k-point  45 :   0.3889-0.0000 0.2500  plane waves:    1071
 k-point  46 :   0.4444 0.0000 0.2500  plane waves:    1073
 k-point  47 :   0.5000-0.0000 0.2500  plane waves:    1068
 k-point  48 :   0.0556 0.0556 0.2500  plane waves:    1085
 k-point  49 :   0.1111 0.0556 0.2500  plane waves:    1094
 k-point  50 :   0.1667 0.0556 0.2500  plane waves:    1093
 k-point  51 :   0.2222 0.0556 0.2500  plane waves:    1089
 k-point  52 :   0.2778 0.0556 0.2500  plane waves:    1085
 k-point  53 :   0.3333 0.0556 0.2500  plane waves:    1073
 k-point  54 :   0.3889 0.0556 0.2500  plane waves:    1073
 k-point  55 :   0.4444 0.0556 0.2500  plane waves:    1076
 k-point  56 :   0.1111 0.1111 0.2500  plane waves:    1084
 k-point  57 :   0.1667 0.1111 0.2500  plane waves:    1084
 k-point  58 :   0.2222 0.1111 0.2500  plane waves:    1085
 k-point  59 :   0.2778 0.1111 0.2500  plane waves:    1082
 k-point  60 :   0.3333 0.1111 0.2500  plane waves:    1074
[...]
 k-point  97 :   0.3333 0.1111 0.5000  plane waves:    1072
 k-point  98 :   0.3889 0.1111 0.5000  plane waves:    1066
 k-point  99 :   0.4444 0.1111 0.5000  plane waves:    1074
 k-point 100 :   0.1667 0.1667 0.5000  plane waves:    1084
 k-point 101 :   0.2222 0.1667 0.5000  plane waves:    1074
 k-point 102 :   0.2778 0.1667 0.5000  plane waves:    1066
 k-point 103 :   0.3333 0.1667 0.5000  plane waves:    1070
 k-point 104 :   0.3889 0.1667 0.5000  plane waves:    1076
 k-point 105 :   0.2222 0.2222 0.5000  plane waves:    1062
 k-point 106 :   0.2778 0.2222 0.5000  plane waves:    1070
 k-point 107 :   0.3333 0.2222 0.5000  plane waves:    1066
 k-point 108 :   0.3889 0.2222 0.5000  plane waves:    1070
 k-point 109 :   0.2778 0.2778 0.5000  plane waves:    1072
 k-point 110 :   0.3333 0.2778 0.5000  plane waves:    1064
 k-point 111 :   0.3333 0.3333 0.5000  plane waves:    1062

 maximum and minimum number of plane-waves per node :        84       66

 maximum number of plane-waves:      1100
 maximum index in each direction:
   IXMAX=    4   IYMAX=    4   IZMAX=   14
   IXMIN=   -5   IYMIN=   -4   IZMIN=  -14

 parallel 3D FFT for wavefunctions:
    minimum data exchange during FFTs selected (reduces bandwidth)
 parallel 3D FFT for charge:
    minimum data exchange during FFTs selected (reduces bandwidth)

 Broyden mixing: mesh for mixing (old mesh)
   NGX =  9   NGY =  9   NGZ = 29
  (NGX  = 36   NGY  = 36   NGZ  =120)
  gives a total of   2349 points

 initial charge density was supplied:
 charge density of overlapping atoms calculated
 number of electron      16.0000000 magnetization
 keeping initial charge density in first step

 Maximum index for augmentation-charges         2182 (set IRDMAX)

 First call to EWALD:  gamma=   0.518
 Maximum number of real-space cells 4x 4x 2
 Maximum number of reciprocal cells 2x 2x 6

--------------------------------------- Iteration      1(   1)  ---------------------------------------

 eigenvalue-minimisations  :  2664
 total energy-change (2. order) : 0.4969602E+02  (-0.8032305E+03)
 number of electron      16.0000000 magnetization
 augmentation part       16.0000000 magnetization

 Free energy of the ion-electron system (eV)
  alpha Z        PSCENC =        32.83019120
  Ewald energy   TEWEN  =      -379.15792784
  -Hartree energ DENC   =      -204.53550299
  -exchange      EXHF   =         0.00000000
  -V(xc)+E(xc)   XCENC  =        52.83514352
  PAW double counting   =       434.08818552     -436.36580876
  entropy T*S    EENTRO =        -0.00029060
  eigenvalues    EBANDS =       -38.59354221
  atomic energy  EATOM  =       588.59557325
  Solvation  Ediel_sol  =         0.00000000
  free energy    TOTEN  =        49.69602110 eV

  energy without entropy =       49.69631170  energy(sigma->0) =       49.69616640

[...]

 eigenvalue-minimisations  :  3836
 total energy-change (2. order) :-0.8486444E+02  (-0.7815403E+02)
 number of electron      16.0000000 magnetization
 augmentation part       16.0000000 magnetization

[...]

 Broyden mixing:
  rms(total) = 0.89177E+00    rms(broyden)= 0.89167E+00
  rms(prec ) = 0.12529E+01
  weight for this iteration     100.00

[...]

 eigenvalues of (default mixing * dielectric matrix)
  average eigenvalue GAMMA=   2.1945
  2.1945

[...]

 eigenvalue-minimisations  :  3368
 total energy-change (2. order) : 0.1260423E-06  (-0.1652174E-07)
 number of electron      16.0000001 magnetization
 augmentation part        0.3840221 magnetization

[...]

 Broyden mixing:
  rms(total) = 0.65467E-05    rms(broyden)= 0.63038E-05
  rms(prec ) = 0.82601E-05
  weight for this iteration     100.00

 eigenvalues of (default mixing * dielectric matrix)
  average eigenvalue GAMMA=   1.8721
  3.1690  2.8388  2.5024  2.4281  1.9654  1.0411  0.9814  0.9814  0.9410

[...]

--------------------------------------- Iteration      1(  15)  ---------------------------------------

 eigenvalue-minimisations  :  2240
 total energy-change (2. order) :-0.8815050E-08  (-0.5316188E-10)
 number of electron      16.0000001 magnetization
 augmentation part        0.3840217 magnetization

 Free energy of the ion-electron system (eV)
  alpha Z        PSCENC =        32.83019120
  Ewald energy   TEWEN  =      -379.15792784
  -Hartree energ DENC   =      -243.81228278
  -exchange      EXHF   =         0.00000000
  -V(xc)+E(xc)   XCENC  =        55.11502737
  PAW double counting   =      1669.37232089    -1672.10843063
  entropy T*S    EENTRO =        -0.00017413
  eigenvalues    EBANDS =       -87.71477209
  atomic energy  EATOM  =       588.59557325
  Solvation  Ediel_sol  =         0.00000000
  free energy    TOTEN  =       -36.88047474 eV

  energy without entropy =      -36.88030061  energy(sigma->0) =      -36.88038768

 average (electrostatic) potential at core
  the test charge radii are     0.6991
  (the norm of the test charge is              1.0000)
       1 -51.7791       2 -51.7790       3 -51.7791       4 -51.7790

 E-fermi :   3.6392     XC(G=0):  -9.4603     alpha+bet :-10.0136

 Fermi energy:         3.6391772753

 k-point     1 :       0.0000    0.0000    0.0000
  band No.  band energies     occupation
      1     -15.9116      2.00000
      2     -15.8045      2.00000
      3      -4.4423      2.00000
      4      -3.4451      2.00000
      5       0.6211      2.00000
      6       0.6212      2.00000
      7       0.6303      2.00000
      8       0.6303      2.00000
      9       7.1559      0.00000
     10      11.9550      0.00000
     11      11.9638      0.00000
     12      11.9876      0.00000

[...]

 k-point   111 :       0.3333    0.3333    0.5000
  band No.  band energies     occupation
      1      -8.9352      2.00000
      2      -8.9352      2.00000
      3      -8.9352      2.00000
      4      -8.9352      2.00000
      5      -6.8885      2.00000
      6      -6.8885      2.00000
      7       3.6392      1.00037
      8       3.6392      1.00037
      9       3.6392      0.99963
     10       3.6392      0.99963
     11      14.0454      0.00000
     12      14.0454      0.00000

 soft charge-density along one line, spin component           1
         0         1         2         3         4         5         6         7         8         9
 total charge-density along one line

------------------------ aborting loop because EDIFF is reached ----------------------------------------

         DFTD3 V3.0 Rev 1
 IVDW         = 12
 DF pbe
 parameters
 VDW_S6       =    1.0000
 VDW_S8       =    0.7875
 VDW_A1       =    0.4289
 VDW_A2       =    4.4407
 k1-k3        =   16.0000    1.3333   -4.0000
 VDW_RADIUS   =   50.2022 A
 VDW_CNRADIUS =   21.1671 A
 Edisp (eV)   -0.53899

 E6    (eV) :    -0.3884
 E8    (eV) :    -0.1506
 % E8        : 27.94

  FORCE on cell =-STRESS in cart. coord.  units (eV):
  Direction    XX          YY          ZZ          XY          YZ          ZX
  Alpha Z    32.83019    32.83019    32.83019
  Ewald     158.42677   158.42555  -696.01072     0.00023     0.00000     0.00000
  Hartree   221.09061   221.09059  -198.36892     0.00001    -0.00000    -0.00000
  E(xc)     -59.44689   -59.44689   -61.61427     0.00000    -0.00000    -0.00000
  Local    -577.03034  -577.02961   662.86922    -0.00032     0.00000     0.00000
  n-local   -13.71662   -14.79431   -13.02350    -0.65572     0.00812     0.00648
  augment    -1.55827    -1.55824    -1.43618     0.00002     0.00000     0.00000
  Kinetic   236.03717   244.17564   275.04251     6.43339    -0.11180    -0.09686
  Fock        0.00000     0.00000     0.00000     0.00000     0.00000     0.00000
  vdW        -0.10393    -0.10393    -0.62137    -0.00000    -0.00000    -0.00000
  Total       0.05883     0.05883    -0.33305     0.00000    -0.00000    -0.00000
  in kB       2.35427     2.35427   -13.32867     0.00001    -0.00000    -0.00000

 VOLUME and BASIS-vectors are now :
  energy-cutoff  :      520.00
  volume of cell :       40.03
      direct lattice vectors                 reciprocal lattice vectors
     2.466303255 -0.000286638  0.000000000     0.405492344  0.234047608  0.000000000
    -1.232898690  2.136022597  0.000000000     0.000054414  0.468191249  0.000000000
     0.000000000  0.000000000  7.600000000     0.000000000  0.000000000  0.131578947

  length of vectors
     2.466303272  2.466299194  7.600000000     0.468190478  0.468191252  0.131578947

 FORCES acting on ions
    electron-ion (+dipol)            ewald-force                    non-local-force                 convergence-correction
   -.215E-03 -.861E-04 -.172E-10   0.268E-03 -.928E-04 -.195E-13   -.305E-15 0.642E-16 -.881E-20   -.303E-11 0.103E-10 0.856E-13
   0.443E-03 0.402E-03 -.181E-10   -.268E-03 0.928E-04 -.195E-13   0.129E-15 -.278E-16 -.542E-20   -.288E-10 -.549E-10 0.868E-13
   -.215E-03 -.861E-04 -.188E-10   0.268E-03 -.928E-04 0.195E-13   -.255E-15 0.101E-15 -.915E-20   -.303E-11 0.103E-10 -.785E-13
   0.443E-03 0.402E-03 -.163E-10   -.268E-03 0.928E-04 0.195E-13   0.118E-15 -.662E-16 -.542E-20   -.288E-10 -.549E-10 -.776E-13
   0.457E-03 0.632E-03 -.703E-10   0.402E-14 0.571E-14 0.768E-19   -.313E-15 0.717E-16 -.288E-19   -.637E-10 -.893E-10 0.164E-13

 POSITION                                       TOTAL-FORCE (eV/Angst)
      1.23307      2.13557      0.00000        -0.000000      0.000000     -0.000000
      1.23290      0.71165      0.00000         0.000000      0.000000     -0.000000
      1.23307      2.13557      3.80000        -0.000000      0.000000     -0.000000
      1.23290      0.71165      3.80000         0.000000     -0.000000      0.000000
    total drift:                                0.000457      0.000632     -0.000000

  FREE ENERGIE OF THE ION-ELECTRON SYSTEM (eV)
  free  energy   TOTEN  =       -37.41946591 eV

  energy  without entropy=      -37.41929178  energy(sigma->0) =      -37.41937884