 vasp.6.3.1 04May22 (build Aug 04 2022 13:02:54) complex

 executed on             LinuxIFC date 2024.11.24  12:52:11

 INCAR:
   ISTART = 1            (Read existing wavefunction
   ISPIN = 1            (Non-Spin polarised DFT)
   LREAL = .FALSE.       (Projection operators: automatic)
   ENCUT = 520        (Cut-off energy for plane wave basis set, in eV)
   PREC = A       (Precision level)
   LWAVE = .FALSE.        (Write WAVECAR or not)
   LCHARG = .FALSE.        (Write CHGCAR or not)
   ADDGRID = .TRUE.        (Increase grid
   KSPACING = 0.2000
   KGAMMA = .FALSE.
   IVDW = 12
   ISMEAR = 0            (Gaussian smearing
   SIGMA = 0.05         (Smearing value in eV
   NELM = 200           (Max electronic SCF steps)
   NELMIN = 6            (Min electronic SCF steps)
   EDIFF = 1E-08        (SCF energy convergence
   NSW = 0          (Max ionic steps)
   IBRION = -1            (Algorithm: 0-MD
   ISIF = 3           (Stress/relaxation: 2-Ions, 3-Shape/Ions/V, 4-Shape/Ions)
   EDIFFG = -1E-04        (Ionic convergence
   NCORE = 14

 POTCAR:    PAW_PBE C 08Apr2002
|           W    W    AA    RRRRR   N    N  II  N    N   GGGG   !!!           |
|           W    W   A  A   R    R  NN   N  II  NN   N  G    G  !!!           |
|           W    W  A    A  R    R  N N  N  II  N N  N  G       !!!           |
|           W WW W  AAAAAA  RRRRR   N  N N  II  N  N N  G  GGG   !            |
|           WW  WW  A    A  R   R   N   NN  II  N   NN  G    G                |
|           W    W  A    A  R    R  N    N  II  N    N   GGGG   !!!           |
|     For optimal performance we recommend to set                             |
|       NCORE = 2 up to number-of-cores-per-socket                            |
|     This setting can greatly improve the performance of VASP for DFT.       |
|     The default, NCORE=1 might be grossly inefficient on modern             |
|     multi-core architectures or massively parallel machines. Do your        |
|     Unfortunately you need to use the default for GW and RPA                |
|     calculations (for HF NCORE is supported but not extensively tested      |
|     yet).                                                                   |

 POTCAR:    PAW_PBE C 08Apr2002
   VRHFIN =C: s2p2

   TITEL  = PAW_PBE C 08Apr2002
   POMASS =   12.011; ZVAL   =    4.000    mass and valenz
   ENMAX  =  400.000; ENMIN  =  300.000 eV

  PAW_PBE C 08Apr2002                   :

 POSCAR: AA-stacked Graphene
  positions in direct lattice
  velocities in cartesian coordinates
 exchange correlation table for  LEXCH =        8
   RHO(1)=    0.500       N(1)  =     2000
   RHO(2)=  100.500       N(2)  =     4000

 ion  position               nearest neighbor table
   1  1.000  1.000  0.000-   2 1.42   2 1.42   2 1.42
   2  0.666  0.333  0.000-   1 1.42   1 1.42   1 1.42
   3  1.000  1.000  0.500-   4 1.42   4 1.42   4 1.42
   4  0.666  0.333  0.500-   3 1.42   3 1.42   3 1.42

  LATTYP: Found a hexagonal cell.
 ALAT       =     2.4663032719
 C/A-ratio  =     8.1093027883

  Lattice vectors:

 A1 = (   2.4663032553,  -0.0002866376,   0.0000000000)
 A2 = (  -1.2328986900,   2.1360225972,   0.0000000000)
 A3 = (   0.0000000000,   0.0000000000,  20.0000000000)

Analysis of symmetry for initial positions (statically):
 Subroutine PRICEL returns following result:

[...]

   2 primitive cells build up your supercell.

 Routine SETGRP: Setting up the symmetry group for a
 hexagonal supercell.

 Subroutine GETGRP returns: Found 24 space group operations
 (whereof  2 operations were pure point group operations)
 out of a pool of 24 trial point group operations.

The static configuration has the point symmetry C_1h.
 The point group associated with its full space group is D_6h.

Analysis of symmetry for dynamics (positions and initial velocities):
 Subroutine PRICEL returns following result:

  LATTYP: Found a hexagonal cell.
 ALAT       =     2.4663032719
 C/A-ratio  =     4.0546513942

  Lattice vectors:

 A1 = (   2.4663032553,  -0.0002866376,   0.0000000000)
 A2 = (  -1.2328986900,   2.1360225972,   0.0000000000)
 A3 = (   0.0000000000,   0.0000000000,  10.0000000000)

   2 primitive cells build up your supercell.

 Routine SETGRP: Setting up the symmetry group for a
 hexagonal supercell.

 Subroutine GETGRP returns: Found 24 space group operations
 (whereof  2 operations were pure point group operations)
 out of a pool of 24 trial point group operations.

The dynamic configuration has the point symmetry C_1h.
 The point group associated with its full space group is D_6h.

 Subroutine INISYM returns: Found 24 space group operations
 (whereof  2 operations are pure point group operations),
 and found     2 'primitive' translations

                                     Primitive cell

  volume of cell :      52.6773

  direct lattice vectors                    reciprocal lattice vectors
     2.466303255 -0.000286638  0.000000000     0.405492344  0.234047608  0.000000000
    -1.232898690  2.136022597  0.000000000     0.000054414  0.468191249  0.000000000
     0.000000000  0.000000000 10.000000000     0.000000000  0.000000000  0.100000000

  length of vectors
     2.466303272  2.466299194 10.000000000     0.468190478  0.468191252  0.100000000

  position of ions in fractional coordinates (direct lattice)
     0.999825905  0.999922181  0.000000000
     0.666491690  0.333254731  0.000000000

  ion indices of the primitive-cell ions
   primitive index   ion index
                 1           1
                 2           2

 KPOINTS: K-Spacing Value to Generate K-Mesh: 0.03

Automatic generation of k-mesh.
 Grid dimensions read from file:
 generate k-points for:   18   18    1

 Generating k-lattice:

  Cartesian coordinates                     Fractional coordinates (reciprocal lattice)
     0.022527352  0.013002645  0.000000000     0.055555556  0.000000000  0.000000000
     0.000003023  0.026010625  0.000000000    -0.000000000  0.055555556  0.000000000
     0.000000000  0.000000000  0.050000000     0.000000000  0.000000000  1.000000000

  Length of vectors
     0.026010582  0.026010625  0.050000000

  Shift w.r.t. Gamma in fractional coordinates (k-lattice)
     0.000000000  0.000000000  0.000000000

 Subroutine IBZKPT returns following result:

 Found     37 irreducible k-points:

 Following reciprocal coordinates:
            Coordinates               Weight
  0.000000  0.000000  0.000000      1.000000
  0.055556 -0.000000  0.000000      6.000000
  0.111111 -0.000000  0.000000      6.000000
  0.166667 -0.000000  0.000000      6.000000
  0.222222 -0.000000  0.000000      6.000000
  0.277778 -0.000000  0.000000      6.000000
  0.333333 -0.000000  0.000000      6.000000
  0.388889 -0.000000  0.000000      6.000000
  0.444444 -0.000000  0.000000      6.000000
  0.500000 -0.000000  0.000000      3.000000
  0.055556  0.055556  0.000000      6.000000
  0.111111  0.055556  0.000000     12.000000
  0.166667  0.055556  0.000000     12.000000
  0.222222  0.055556  0.000000     12.000000
  0.277778  0.055556  0.000000     12.000000
  0.333333  0.055556  0.000000     12.000000
  0.388889  0.055556  0.000000     12.000000
  0.444444  0.055556  0.000000     12.000000
  0.111111  0.111111  0.000000      6.000000
  0.166667  0.111111  0.000000     12.000000
  0.222222  0.111111  0.000000     12.000000
  0.277778  0.111111  0.000000     12.000000
  0.333333  0.111111  0.000000     12.000000
  0.388889  0.111111  0.000000     12.000000
  0.444444  0.111111  0.000000      6.000000
  0.166667  0.166667  0.000000      6.000000
  0.222222  0.166667  0.000000     12.000000
  0.277778  0.166667  0.000000     12.000000
  0.333333  0.166667  0.000000     12.000000
  0.388889  0.166667  0.000000     12.000000
  0.222222  0.222222  0.000000      6.000000
  0.277778  0.222222  0.000000     12.000000
  0.333333  0.222222  0.000000     12.000000
  0.388889  0.222222  0.000000      6.000000
  0.277778  0.277778  0.000000      6.000000
  0.333333  0.277778  0.000000     12.000000
  0.333333  0.333333  0.000000      2.000000

 Following cartesian coordinates:
            Coordinates               Weight
  0.000000  0.000000  0.000000      1.000000
  0.022527  0.013003  0.000000      6.000000
  0.045055  0.026005  0.000000      6.000000
  0.067582  0.039008  0.000000      6.000000
  0.090109  0.052011  0.000000      6.000000
  0.112637  0.065013  0.000000      6.000000
  0.135164  0.078016  0.000000      6.000000
  0.157691  0.091019  0.000000      6.000000
  0.180219  0.104021  0.000000      6.000000
  0.202746  0.117024  0.000000      3.000000
  0.022530  0.039013  0.000000      6.000000
  0.045058  0.052016  0.000000     12.000000
  0.067585  0.065019  0.000000     12.000000
  0.090112  0.078021  0.000000     12.000000
  0.112640  0.091024  0.000000     12.000000
  0.135167  0.104026  0.000000     12.000000
  0.157694  0.117029  0.000000     12.000000
  0.180222  0.130032  0.000000     12.000000
  0.045061  0.078027  0.000000      6.000000
  0.067588  0.091029  0.000000     12.000000
  0.090115  0.104032  0.000000     12.000000
  0.112643  0.117034  0.000000     12.000000
  0.135170  0.130037  0.000000     12.000000
  0.157698  0.143040  0.000000     12.000000
  0.180225  0.156042  0.000000      6.000000
  0.067591  0.117040  0.000000      6.000000
  0.090118  0.130042  0.000000     12.000000
  0.112646  0.143045  0.000000     12.000000
  0.135173  0.156048  0.000000     12.000000
  0.157701  0.169050  0.000000     12.000000
  0.090122  0.156053  0.000000      6.000000
  0.112649  0.169056  0.000000     12.000000
  0.135176  0.182058  0.000000     12.000000
  0.157704  0.195061  0.000000      6.000000
  0.112652  0.195066  0.000000      6.000000
  0.135179  0.208069  0.000000     12.000000
  0.135182  0.234080  0.000000      2.000000

 SYSTEM =  unknown system
 POSCAR =  AA-stacked Graphene

 Startparameter for this run:
   NWRITE =      2    write-flag & timer
   PREC   = a         normal or accurate (medium, high low for compatibility)
   ISTART =      0    job   : 0-new  1-cont  2-samecut
   ICHARG =      2    charge: 1-file 2-atom 10-const
   ISPIN  =      1    spin polarized calculation?
   LNONCOLLINEAR =      F non collinear calculations
   LSORBIT =      F    spin-orbit coupling
   INIWAV =      1    electr: 0-lowe 1-rand  2-diag
   LASPH  =      F    aspherical Exc in radial PAW
 Electronic Relaxation 1
   ENCUT  =  520.0 eV  38.22 Ry    6.18 a.u.   4.59  4.59 37.19*2*pi/ulx,y,z
   ENINI  =  520.0     initial cutoff
   ENAUG  =  644.9 eV  augmentation charge cutoff
   NELM   =    200;   NELMIN=  6; NELMDL=  0     # of ELM steps
   EDIFF  = 0.1E-07   stopping-criterion for ELM
   LREAL  =      F    real-space projection
   NLSPLINE    = F    spline interpolate recip. space projectors
   LCOMPAT=      F    compatible to vasp.4.4
   GGA_COMPAT  = T    GGA compatible to vasp.4.4-vasp.4.6
   LMAXPAW     = -100 max onsite density
   LMAXMIX     =    2 max onsite mixed and CHGCAR
   VOSKOWN=      0    Vosko Wilk Nusair interpolation
   ROPT   =    0.00000
 Ionic relaxation
   EDIFFG = -.1E-03   stopping-criterion for IOM
   NSW    =      0    number of steps for IOM
[...]
   DQ        =  0.001000  dq finite difference perturbation B field
   LLRAUG    =     F  two centre corrections for induced B field

 Static calculation
 charge density and potential will be updated during run
 non-spin polarized calculation
 Variant of blocked Davidson
 Davidson routine will perform the subspace rotation
 perform sub-space diagonalisation
    after iterative eigenvector-optimisation
 modified Broyden-mixing scheme, WC =      100.0
 initial mixing is a Kerker type mixing with AMIX =  0.4000 and BMIX =      1.0000
 Hartree-type preconditioning will be used
 using additional bands            4
 reciprocal scheme for non local part
 use partial core corrections
 calculate Harris-corrections to forces
   (improved forces if not selfconsistent)
 use gradient corrections
 use of overlap-Matrix (Vanderbilt PP)
 Gauss-broadening in eV      SIGMA  =   0.05

  energy-cutoff  :      520.00
  volume of cell :      105.35
      direct lattice vectors                 reciprocal lattice vectors
     2.466303255 -0.000286638  0.000000000     0.405492344  0.234047608  0.000000000
    -1.232898690  2.136022597  0.000000000     0.000054414  0.468191249  0.000000000
     0.000000000  0.000000000 20.000000000     0.000000000  0.000000000  0.050000000

[...]

 k-points in units of 2pi/SCALE and weight: K-Spacing Value to Generate K-Mesh: 0.03
   0.00000000  0.00000000  0.00000000       0.003
   0.02252735  0.01300264  0.00000000       0.019
   0.04505470  0.02600529  0.00000000       0.019
   0.06758206  0.03900793  0.00000000       0.019
   0.09010941  0.05201058  0.00000000       0.019
   0.11263676  0.06501322  0.00000000       0.019
   0.13516411  0.07801587  0.00000000       0.019
   0.15769147  0.09101851  0.00000000       0.019
   0.18021882  0.10402116  0.00000000       0.019
   0.20274617  0.11702380  0.00000000       0.009
   0.02253038  0.03901327  0.00000000       0.019
   0.04505773  0.05201591  0.00000000       0.037
   0.06758508  0.06501856  0.00000000       0.037
   0.09011243  0.07802120  0.00000000       0.037
   0.11263979  0.09102385  0.00000000       0.037
   0.13516714  0.10402649  0.00000000       0.037
   0.15769449  0.11702914  0.00000000       0.037
   0.18022184  0.13003178  0.00000000       0.037
   0.04506075  0.07802654  0.00000000       0.019
   0.06758810  0.09102918  0.00000000       0.037
   0.09011546  0.10403183  0.00000000       0.037
   0.11264281  0.11703447  0.00000000       0.037
   0.13517016  0.13003712  0.00000000       0.037
   0.15769751  0.14303976  0.00000000       0.037
   0.18022487  0.15604241  0.00000000       0.019
   0.06759113  0.11703981  0.00000000       0.019
   0.09011848  0.13004245  0.00000000       0.037
   0.11264583  0.14304510  0.00000000       0.037
   0.13517318  0.15604774  0.00000000       0.037
   0.15770054  0.16905039  0.00000000       0.037
   0.09012150  0.15605308  0.00000000       0.019
   0.11264885  0.16905572  0.00000000       0.037
   0.13517621  0.18205837  0.00000000       0.037
   0.15770356  0.19506101  0.00000000       0.019
   0.11265188  0.19506635  0.00000000       0.019
   0.13517923  0.20806899  0.00000000       0.037
   0.13518225  0.23407962  0.00000000       0.006

 k-points in reciprocal lattice and weights: K-Spacing Value to Generate K-Mesh: 0.03
   0.00000000  0.00000000  0.00000000       0.003
   0.05555556 -0.00000000  0.00000000       0.019
   0.11111111 -0.00000000  0.00000000       0.019
   0.16666667 -0.00000000  0.00000000       0.019
   0.22222222 -0.00000000  0.00000000       0.019
   0.27777778 -0.00000000  0.00000000       0.019
   0.33333333 -0.00000000  0.00000000       0.019
   0.38888889 -0.00000000  0.00000000       0.019
   0.44444444 -0.00000000  0.00000000       0.019
   0.50000000 -0.00000000  0.00000000       0.009
   0.05555556  0.05555556  0.00000000       0.019
   0.11111111  0.05555556  0.00000000       0.037
   0.16666667  0.05555556  0.00000000       0.037
   0.22222222  0.05555556  0.00000000       0.037
   0.27777778  0.05555556  0.00000000       0.037
   0.33333333  0.05555556  0.00000000       0.037
   0.38888889  0.05555556  0.00000000       0.037
   0.44444444  0.05555556  0.00000000       0.037
   0.11111111  0.11111111  0.00000000       0.019
   0.16666667  0.11111111  0.00000000       0.037
   0.22222222  0.11111111  0.00000000       0.037
   0.27777778  0.11111111  0.00000000       0.037
   0.33333333  0.11111111  0.00000000       0.037
   0.38888889  0.11111111  0.00000000       0.037
   0.44444444  0.11111111  0.00000000       0.019
   0.16666667  0.16666667  0.00000000       0.019
   0.22222222  0.16666667  0.00000000       0.037
   0.27777778  0.16666667  0.00000000       0.037
   0.33333333  0.16666667  0.00000000       0.037
   0.38888889  0.16666667  0.00000000       0.037
   0.22222222  0.22222222  0.00000000       0.019
   0.27777778  0.22222222  0.00000000       0.037
   0.33333333  0.22222222  0.00000000       0.037
   0.38888889  0.22222222  0.00000000       0.019
   0.27777778  0.27777778  0.00000000       0.019
   0.33333333  0.27777778  0.00000000       0.037
   0.33333333  0.33333333  0.00000000       0.006

 position of ions in fractional coordinates (direct lattice)
   0.99982591  0.99992218  0.00000000
   0.66649169  0.33325473  0.00000000
   0.99982591  0.99992218  0.50000000
   0.66649169  0.33325473  0.50000000

 position of ions in cartesian coordinates  (Angst):
   1.23307114  2.13556979  0.00000000
   1.23290130  0.71164859  0.00000000
   1.23307114  2.13556979 10.00000000
   1.23290130  0.71164859 10.00000000

 k-point   1 :   0.0000 0.0000 0.0000  plane waves:    2841
 k-point   2 :   0.0556-0.0000 0.0000  plane waves:    2852
 k-point   3 :   0.1111-0.0000 0.0000  plane waves:    2870
 k-point   4 :   0.1667-0.0000 0.0000  plane waves:    2870
 k-point   5 :   0.2222-0.0000 0.0000  plane waves:    2888
 k-point   6 :   0.2778-0.0000 0.0000  plane waves:    2866
 k-point   7 :   0.3333-0.0000 0.0000  plane waves:    2862
 k-point   8 :   0.3889-0.0000 0.0000  plane waves:    2818
 k-point   9 :   0.4444-0.0000 0.0000  plane waves:    2828
 k-point  10 :   0.5000-0.0000 0.0000  plane waves:    2816
 k-point  11 :   0.0556 0.0556 0.0000  plane waves:    2869
 k-point  12 :   0.1111 0.0556 0.0000  plane waves:    2863
 k-point  13 :   0.1667 0.0556 0.0000  plane waves:    2874
 k-point  14 :   0.2222 0.0556 0.0000  plane waves:    2868
 k-point  15 :   0.2778 0.0556 0.0000  plane waves:    2862
 k-point  16 :   0.3333 0.0556 0.0000  plane waves:    2836
 k-point  17 :   0.3889 0.0556 0.0000  plane waves:    2821
 k-point  18 :   0.4444 0.0556 0.0000  plane waves:    2826
 k-point  19 :   0.1111 0.1111 0.0000  plane waves:    2873
 k-point  20 :   0.1667 0.1111 0.0000  plane waves:    2859
 k-point  21 :   0.2222 0.1111 0.0000  plane waves:    2858
 k-point  22 :   0.2778 0.1111 0.0000  plane waves:    2850
 k-point  23 :   0.3333 0.1111 0.0000  plane waves:    2822
 k-point  24 :   0.3889 0.1111 0.0000  plane waves:    2817
 k-point  25 :   0.4444 0.1111 0.0000  plane waves:    2812
 k-point  26 :   0.1667 0.1667 0.0000  plane waves:    2859
 k-point  27 :   0.2222 0.1667 0.0000  plane waves:    2835
 k-point  28 :   0.2778 0.1667 0.0000  plane waves:    2810
 k-point  29 :   0.3333 0.1667 0.0000  plane waves:    2817
 k-point  30 :   0.3889 0.1667 0.0000  plane waves:    2819
 k-point  31 :   0.2222 0.2222 0.0000  plane waves:    2815
 k-point  32 :   0.2778 0.2222 0.0000  plane waves:    2813
 k-point  33 :   0.3333 0.2222 0.0000  plane waves:    2812
 k-point  34 :   0.3889 0.2222 0.0000  plane waves:    2804
 k-point  35 :   0.2778 0.2778 0.0000  plane waves:    2803
 k-point  36 :   0.3333 0.2778 0.0000  plane waves:    2792
 k-point  37 :   0.3333 0.3333 0.0000  plane waves:    2790

 maximum and minimum number of plane-waves per node :       217      193

 maximum number of plane-waves:      2888
 maximum index in each direction:
   IXMAX=    4   IYMAX=    4   IZMAX=   37
   IXMIN=   -5   IYMIN=   -4   IZMIN=  -37

 parallel 3D FFT for wavefunctions:
    minimum data exchange during FFTs selected (reduces bandwidth)
 parallel 3D FFT for charge:
    minimum data exchange during FFTs selected (reduces bandwidth)

 Broyden mixing: mesh for mixing (old mesh)
   NGX =  9   NGY =  9   NGZ = 75
  (NGX  = 36   NGY  = 36   NGZ  =300)
  gives a total of   6075 points

 initial charge density was supplied:
 charge density of overlapping atoms calculated
 number of electron      16.0000000 magnetization
 keeping initial charge density in first step

 Maximum index for augmentation-charges         2072 (set IRDMAX)

 First call to EWALD:  gamma=   0.375
 Maximum number of real-space cells 5x 5x 1
 Maximum number of reciprocal cells 2x 2x10

--------------------------------------- Iteration      1(   1)  ---------------------------------------

 eigenvalue-minimisations  :   888
 total energy-change (2. order) : 0.1017397E+03  (-0.6492558E+03)
 number of electron      16.0000000 magnetization
 augmentation part       16.0000000 magnetization

 Free energy of the ion-electron system (eV)
  alpha Z        PSCENC =        12.47547266
  Ewald energy   TEWEN  =       756.70825843
  -Hartree energ DENC   =     -1219.20412964
  -exchange      EXHF   =         0.00000000
  -V(xc)+E(xc)   XCENC  =        52.71631201
  PAW double counting   =       434.08818552     -436.36580876
  entropy T*S    EENTRO =        -0.00353600
  eigenvalues    EBANDS =       -87.27059046
  atomic energy  EATOM  =       588.59557325
  Solvation  Ediel_sol  =         0.00000000
  free energy    TOTEN  =       101.73973701 eV

  energy without entropy =      101.74327301  energy(sigma->0) =      101.74150501

[...]

 eigenvalue-minimisations  :  1428
 total energy-change (2. order) :-0.1294676E+03  (-0.1176330E+03)
 number of electron      16.0000000 magnetization
 augmentation part       16.0000000 magnetization

[...]

 Broyden mixing:
  rms(total) = 0.89183E+00    rms(broyden)= 0.89172E+00
  rms(prec ) = 0.95375E+00
  weight for this iteration     100.00

[...]

 eigenvalues of (default mixing * dielectric matrix)
  average eigenvalue GAMMA=   2.2098
  2.2098

[...]

 eigenvalue-minimisations  :  1008
 total energy-change (2. order) : 0.6897697E-02  (-0.7930834E-03)
 number of electron      16.0000001 magnetization
 augmentation part        0.3843113 magnetization

[...]

 Broyden mixing:
  rms(total) = 0.37693E-05    rms(broyden)= 0.36067E-05
  rms(prec ) = 0.39744E-05
  weight for this iteration     100.00

 eigenvalues of (default mixing * dielectric matrix)
  average eigenvalue GAMMA=   2.4881
  8.1998  4.0025  2.9549  2.6615  2.6615  2.3642  2.0677  1.0205  0.9678  0.9678
  0.9946  0.9946

[...]

--------------------------------------- Iteration      1(  18)  ---------------------------------------

 eigenvalue-minimisations  :   676
 total energy-change (2. order) :-0.9600626E-08  (-0.1141977E-09)
 number of electron      16.0000001 magnetization
 augmentation part        0.3839515 magnetization

 Free energy of the ion-electron system (eV)
  alpha Z        PSCENC =        12.47547266
  Ewald energy   TEWEN  =       756.70825843
  -Hartree energ DENC   =     -1280.89780647
  -exchange      EXHF   =         0.00000000
  -V(xc)+E(xc)   XCENC  =        55.08271155
  PAW double counting   =      1668.79803568    -1671.53376811
  entropy T*S    EENTRO =        -0.00069653
  eigenvalues    EBANDS =      -166.12169091
  atomic energy  EATOM  =       588.59557325
  Solvation  Ediel_sol  =         0.00000000
  free energy    TOTEN  =       -36.89391045 eV

  energy without entropy =      -36.89321392  energy(sigma->0) =      -36.89356218

 average (electrostatic) potential at core
  the test charge radii are     0.6991
  (the norm of the test charge is              1.0000)
       1 -56.6842       2 -56.6842       3 -56.6842       4 -56.6842

 E-fermi :  -1.2494     XC(G=0):  -4.2709     alpha+bet : -3.8052

 Fermi energy:        -1.2493586362

 k-point     1 :       0.0000    0.0000    0.0000
  band No.  band energies     occupation
      1     -20.7588      2.00000
      2     -20.7588      2.00000
      3      -8.8616      2.00000
      4      -8.8616      2.00000
      5      -4.2777      2.00000
      6      -4.2777      2.00000
      7      -4.2776      2.00000
      8      -4.2776      2.00000
      9       1.8780      0.00000
     10       2.2221      0.00000
     11       2.6006      0.00000
     12       3.4634      0.00000

[...]

 k-point    37 :       0.3333    0.3333    0.0000
  band No.  band energies     occupation
      1     -13.8367      2.00000
      2     -13.8366      2.00000
      3     -13.8366      2.00000
      4     -13.8366      2.00000
      5     -11.7903      2.00000
      6     -11.7903      2.00000
      7      -1.2494      1.00044
      8      -1.2494      1.00031
      9      -1.2493      0.99969
     10      -1.2493      0.99956
     11       9.3653      0.00000
     12       9.3724      0.00000

 soft charge-density along one line, spin component           1
         0         1         2         3         4         5         6         7         8         9
 total charge-density along one line

------------------------ aborting loop because EDIFF is reached ----------------------------------------

         DFTD3 V3.0 Rev 1
 IVDW         = 12
 DF pbe
 parameters
 VDW_S6       =    1.0000
 VDW_S8       =    0.7875
 VDW_A1       =    0.4289
 VDW_A2       =    4.4407
 k1-k3        =   16.0000    1.3333   -4.0000
 VDW_RADIUS   =   50.2022 A
 VDW_CNRADIUS =   21.1671 A
 Edisp (eV)   -0.35793

 E6    (eV) :    -0.2469
 E8    (eV) :    -0.1110
 % E8        : 31.01

  FORCE on cell =-STRESS in cart. coord.  units (eV):
  Direction    XX          YY          ZZ          XY          YZ          ZX
  Alpha Z    12.47547    12.47547    12.47547
  Ewald    1294.38847  1294.38725 -1832.06794     0.00023    -0.00000     0.00000
  Hartree  1258.25107  1258.25105 -1235.60419     0.00001    -0.00000    -0.00000
  E(xc)     -59.41321   -59.41321   -61.64002     0.00000    -0.00000    -0.00000
  Local   -2729.77278 -2729.77206  2856.48103    -0.00032     0.00000     0.00000
  n-local   -13.72109   -14.79836   -13.00392    -0.65486     0.00000     0.00000
  augment    -1.55776    -1.55774    -1.43594     0.00002    -0.00000    -0.00000
  Kinetic   236.02712   244.16676   274.77389     6.43057    -0.00000    -0.00000
  Fock        0.00000     0.00000     0.00000     0.00000     0.00000     0.00000
  vdW        -0.08696    -0.08696    -0.01557    -0.00000    -0.00000    -0.00000
  Total       0.12125     0.12125    -0.03718     0.00000    -0.00000     0.00000
  in kB       1.84393     1.84393    -0.56540     0.00000    -0.00000     0.00000

 VOLUME and BASIS-vectors are now :
  energy-cutoff  :      520.00
  volume of cell :      105.35
      direct lattice vectors                 reciprocal lattice vectors
     2.466303255 -0.000286638  0.000000000     0.405492344  0.234047608  0.000000000
    -1.232898690  2.136022597  0.000000000     0.000054414  0.468191249  0.000000000
     0.000000000  0.000000000 20.000000000     0.000000000  0.000000000  0.050000000

  length of vectors
     2.466303272  2.466299194 20.000000000     0.468190478  0.468191252  0.050000000

 FORCES acting on ions
    electron-ion (+dipol)            ewald-force                    non-local-force                 convergence-correction
   -.215E-03 -.860E-04 0.331E-11   0.268E-03 -.928E-04 -.214E-13   0.794E-16 0.152E-16 -.103E-23   0.115E-09 0.206E-11 0.336E-12
   0.443E-03 0.402E-03 0.471E-11   -.268E-03 0.928E-04 -.214E-13   -.179E-15 0.190E-16 0.827E-24   -.160E-09 -.646E-10 0.335E-12
   -.215E-03 -.860E-04 0.630E-12   0.268E-03 -.928E-04 0.214E-13   0.117E-15 -.136E-16 -.352E-23   0.115E-09 0.206E-11 -.234E-12
   0.443E-03 0.402E-03 0.739E-11   -.268E-03 0.928E-04 0.214E-13   -.183E-15 0.229E-16 0.124E-23   -.160E-09 -.646E-10 -.235E-12
   0.456E-03 0.632E-03 0.160E-10   0.749E-14 -.177E-13 0.127E-22   -.166E-15 0.435E-16 -.248E-23   -.897E-10 -.125E-09 0.202E-12

 POSITION                                       TOTAL-FORCE (eV/Angst)
      1.23307      2.13557      0.00000        -0.000000     -0.000000      0.000000
      1.23290      0.71165      0.00000         0.000000      0.000000      0.000000
      1.23307      2.13557     10.00000        -0.000000     -0.000000     -0.000000
      1.23290      0.71165     10.00000         0.000000      0.000000      0.000000
    total drift:                                0.000456      0.000632      0.000000

  FREE ENERGIE OF THE ION-ELECTRON SYSTEM (eV)
  free  energy   TOTEN  =       -37.25184199 eV

  energy  without entropy=      -37.25114546  energy(sigma->0) =      -37.25149372