 vasp.6.3.1 04May22 (build Aug 04 2022 13:02:54) complex

 executed on             LinuxIFC date 2024.11.27  04:48:29

 INCAR:
   ISTART = 1            (Read existing wavefunction
   ISPIN = 1            (Non-Spin polarised DFT)
   LREAL = .FALSE.       (Projection operators: automatic)
   ENCUT = 520        (Cut-off energy for plane wave basis set, in eV)
   PREC = A       (Precision level)
   LWAVE = .FALSE.        (Write WAVECAR or not)
   LCHARG = .FALSE.        (Write CHGCAR or not)
   ADDGRID = .TRUE.        (Increase grid
   KSPACING = 0.2000
   KGAMMA = .FALSE.
   IVDW = 12
   ISMEAR = 0            (Gaussian smearing
   SIGMA = 0.05         (Smearing value in eV
   NELM = 200           (Max electronic SCF steps)
   NELMIN = 6            (Min electronic SCF steps)
   EDIFF = 1E-08        (SCF energy convergence
   NSW = 0          (Max ionic steps)
   IBRION = -1            (Algorithm: 0-MD
   ISIF = 3           (Stress/relaxation: 2-Ions, 3-Shape/Ions/V, 4-Shape/Ions)
   EDIFFG = -1E-04        (Ionic convergence
   ISYM = 0
   SYMPREC = 1E-08
   NCORE = 14

 POTCAR:    PAW_PBE C 08Apr2002
|           W    W    AA    RRRRR   N    N  II  N    N   GGGG   !!!           |
|           W    W   A  A   R    R  NN   N  II  NN   N  G    G  !!!           |
|           W    W  A    A  R    R  N N  N  II  N N  N  G       !!!           |
|           W WW W  AAAAAA  RRRRR   N  N N  II  N  N N  G  GGG   !            |
|           WW  WW  A    A  R   R   N   NN  II  N   NN  G    G                |
|           W    W  A    A  R    R  N    N  II  N    N   GGGG   !!!           |
|     For optimal performance we recommend to set                             |
|       NCORE = 2 up to number-of-cores-per-socket                            |
|     This setting can greatly improve the performance of VASP for DFT.       |
|     The default, NCORE=1 might be grossly inefficient on modern             |
|     multi-core architectures or massively parallel machines. Do your        |
|     Unfortunately you need to use the default for GW and RPA                |
|     calculations (for HF NCORE is supported but not extensively tested      |
|     yet).                                                                   |

 POTCAR:    PAW_PBE C 08Apr2002
   VRHFIN =C: s2p2

   TITEL  = PAW_PBE C 08Apr2002
   POMASS =   12.011; ZVAL   =    4.000    mass and valenz
   ENMAX  =  400.000; ENMIN  =  300.000 eV

  PAW_PBE C 08Apr2002                   :

 POSCAR: Graphene
  positions in direct lattice
 exchange correlation table for  LEXCH =        8
   RHO(1)=    0.500       N(1)  =     2000
   RHO(2)=  100.500       N(2)  =     4000

 ion  position               nearest neighbor table
   1  0.000  0.000  0.500-   2 1.75   2 1.75   2 1.75
   2  0.667  0.333  0.500-   1 1.75   1 1.75   1 1.75

IMPORTANT INFORMATION: All symmetrisations will be switched off!
NOSYMM: (Re-)initialisation of all symmetry stuff for point group C_1.

                                     Primitive cell

  volume of cell :     119.6478

  direct lattice vectors                    reciprocal lattice vectors
     3.034871436  0.000000000  0.000000000     0.329503250  0.190233292  0.000000000
    -1.517399943  2.628289746  0.000000000     0.000000000  0.380475555  0.000000000
     0.000000000  0.000000000 15.000000000     0.000000000  0.000000000  0.066666667

  length of vectors
     3.034871436  3.034865660 15.000000000     0.380474831  0.380475555  0.066666667

  position of ions in fractional coordinates (direct lattice)
     0.000000000  0.000000000  0.500000000
     0.666668846  0.333334637  0.500000000

  ion indices of the primitive-cell ions
   primitive index   ion index
                 1           1
                 2           2

 KPOINTS: K-Spacing Value to Generate K-Mesh: 0.03

Automatic generation of k-mesh.
 Grid dimensions read from file:
 generate k-points for:   15   15    1

 Generating k-lattice:

  Cartesian coordinates                     Fractional coordinates (reciprocal lattice)
     0.021966883  0.012682219  0.000000000     0.066666667 -0.000000000  0.000000000
     0.000000000  0.025365037  0.000000000     0.000000000  0.066666667  0.000000000
     0.000000000  0.000000000  0.066666667     0.000000000  0.000000000  1.000000000

  Length of vectors
     0.025364989  0.025365037  0.066666667

  Shift w.r.t. Gamma in fractional coordinates (k-lattice)
     0.000000000  0.000000000  0.000000000

 Subroutine IBZKPT returns following result:

 Found    113 irreducible k-points:

 Following reciprocal coordinates:
            Coordinates               Weight
  0.000000  0.000000  0.000000      1.000000
  0.066667 -0.000000  0.000000      2.000000
  0.133333 -0.000000  0.000000      2.000000
  0.200000  0.000000  0.000000      2.000000
  0.266667 -0.000000  0.000000      2.000000
  0.333333 -0.000000  0.000000      2.000000
  0.400000 -0.000000  0.000000      2.000000
  0.466667  0.000000  0.000000      2.000000
  0.000000  0.066667  0.000000      2.000000
  0.066667  0.066667  0.000000      2.000000
  0.133333  0.066667  0.000000      2.000000
  0.200000  0.066667  0.000000      2.000000
  0.266667  0.066667  0.000000      2.000000
  0.333333  0.066667  0.000000      2.000000
  0.400000  0.066667  0.000000      2.000000
  0.466667  0.066667  0.000000      2.000000
 -0.466667  0.066667  0.000000      2.000000
 -0.400000  0.066667  0.000000      2.000000
 -0.333333  0.066667  0.000000      2.000000
 -0.266667  0.066667  0.000000      2.000000
 -0.200000  0.066667  0.000000      2.000000
 -0.133333  0.066667  0.000000      2.000000
 -0.066667  0.066667  0.000000      2.000000
  0.000000  0.133333  0.000000      2.000000
  0.066667  0.133333  0.000000      2.000000
  0.133333  0.133333  0.000000      2.000000
  0.200000  0.133333  0.000000      2.000000
  0.266667  0.133333  0.000000      2.000000
  0.333333  0.133333  0.000000      2.000000
  0.400000  0.133333  0.000000      2.000000
  0.466667  0.133333  0.000000      2.000000
 -0.466667  0.133333  0.000000      2.000000
 -0.400000  0.133333  0.000000      2.000000
 -0.333333  0.133333  0.000000      2.000000
 -0.266667  0.133333  0.000000      2.000000
 -0.200000  0.133333  0.000000      2.000000
 -0.133333  0.133333  0.000000      2.000000
 -0.066667  0.133333  0.000000      2.000000
  0.000000  0.200000  0.000000      2.000000
  0.066667  0.200000  0.000000      2.000000
  0.133333  0.200000  0.000000      2.000000
  0.200000  0.200000  0.000000      2.000000
  0.266667  0.200000  0.000000      2.000000
  0.333333  0.200000  0.000000      2.000000
  0.400000  0.200000  0.000000      2.000000
  0.466667  0.200000  0.000000      2.000000
 -0.466667  0.200000  0.000000      2.000000
 -0.400000  0.200000  0.000000      2.000000
 -0.333333  0.200000  0.000000      2.000000
 -0.266667  0.200000  0.000000      2.000000
 -0.200000  0.200000  0.000000      2.000000
 -0.133333  0.200000  0.000000      2.000000
 -0.066667  0.200000  0.000000      2.000000
  0.000000  0.266667  0.000000      2.000000
  0.066667  0.266667  0.000000      2.000000
  0.133333  0.266667  0.000000      2.000000
  0.200000  0.266667  0.000000      2.000000
  0.266667  0.266667  0.000000      2.000000
  0.333333  0.266667  0.000000      2.000000
  0.400000  0.266667  0.000000      2.000000
[...]
  0.000000  0.466667  0.000000      2.000000
  0.066667  0.466667  0.000000      2.000000
  0.133333  0.466667  0.000000      2.000000
  0.200000  0.466667  0.000000      2.000000
  0.266667  0.466667  0.000000      2.000000
  0.333333  0.466667  0.000000      2.000000
  0.400000  0.466667  0.000000      2.000000
  0.466667  0.466667  0.000000      2.000000
 -0.466667  0.466667  0.000000      2.000000
 -0.400000  0.466667  0.000000      2.000000
 -0.333333  0.466667  0.000000      2.000000
 -0.266667  0.466667  0.000000      2.000000
 -0.200000  0.466667  0.000000      2.000000
 -0.133333  0.466667  0.000000      2.000000
 -0.066667  0.466667  0.000000      2.000000

 Following cartesian coordinates:
            Coordinates               Weight
  0.000000  0.000000  0.000000      1.000000
  0.021967  0.012682  0.000000      2.000000
  0.043934  0.025364  0.000000      2.000000
  0.065901  0.038047  0.000000      2.000000
  0.087868  0.050729  0.000000      2.000000
  0.109834  0.063411  0.000000      2.000000
  0.131801  0.076093  0.000000      2.000000
  0.153768  0.088776  0.000000      2.000000
  0.000000  0.025365  0.000000      2.000000
  0.021967  0.038047  0.000000      2.000000
  0.043934  0.050729  0.000000      2.000000
  0.065901  0.063412  0.000000      2.000000
  0.087868  0.076094  0.000000      2.000000
  0.109834  0.088776  0.000000      2.000000
  0.131801  0.101458  0.000000      2.000000
  0.153768  0.114141  0.000000      2.000000
 -0.153768 -0.063410  0.000000      2.000000
 -0.131801 -0.050728  0.000000      2.000000
 -0.109834 -0.038046  0.000000      2.000000
 -0.087868 -0.025364  0.000000      2.000000
 -0.065901 -0.012682  0.000000      2.000000
 -0.043934  0.000001  0.000000      2.000000
 -0.021967  0.012683  0.000000      2.000000
  0.000000  0.050730  0.000000      2.000000
  0.021967  0.063412  0.000000      2.000000
  0.043934  0.076095  0.000000      2.000000
  0.065901  0.088777  0.000000      2.000000
  0.087868  0.101459  0.000000      2.000000
  0.109834  0.114141  0.000000      2.000000
  0.131801  0.126823  0.000000      2.000000
  0.153768  0.139506  0.000000      2.000000
 -0.153768 -0.038045  0.000000      2.000000
 -0.131801 -0.025363  0.000000      2.000000
 -0.109834 -0.012681  0.000000      2.000000
 -0.087868  0.000001  0.000000      2.000000
 -0.065901  0.012683  0.000000      2.000000
 -0.043934  0.025366  0.000000      2.000000
 -0.021967  0.038048  0.000000      2.000000
  0.000000  0.076095  0.000000      2.000000
  0.021967  0.088777  0.000000      2.000000
  0.043934  0.101460  0.000000      2.000000
  0.065901  0.114142  0.000000      2.000000
  0.087868  0.126824  0.000000      2.000000
  0.109834  0.139506  0.000000      2.000000
  0.131801  0.152188  0.000000      2.000000
  0.153768  0.164871  0.000000      2.000000
 -0.153768 -0.012680  0.000000      2.000000
 -0.131801  0.000002  0.000000      2.000000
 -0.109834  0.012684  0.000000      2.000000
 -0.087868  0.025366  0.000000      2.000000
 -0.065901  0.038048  0.000000      2.000000
 -0.043934  0.050731  0.000000      2.000000
 -0.021967  0.063413  0.000000      2.000000
  0.000000  0.101460  0.000000      2.000000
  0.021967  0.114142  0.000000      2.000000
  0.043934  0.126825  0.000000      2.000000
  0.065901  0.139507  0.000000      2.000000
  0.087868  0.152189  0.000000      2.000000
  0.109834  0.164871  0.000000      2.000000
  0.131801  0.177553  0.000000      2.000000
[...]
  0.000000  0.177555  0.000000      2.000000
  0.021967  0.190237  0.000000      2.000000
  0.043934  0.202920  0.000000      2.000000
  0.065901  0.215602  0.000000      2.000000
  0.087868  0.228284  0.000000      2.000000
  0.109834  0.240966  0.000000      2.000000
  0.131801  0.253649  0.000000      2.000000
  0.153768  0.266331  0.000000      2.000000
 -0.153768  0.088780  0.000000      2.000000
[...]
   0.00000000  0.00000000  0.00000000       0.004
   0.06666667 -0.00000000  0.00000000       0.009
   0.13333333 -0.00000000  0.00000000       0.009
   0.20000000  0.00000000  0.00000000       0.009
   0.26666667 -0.00000000  0.00000000       0.009
   0.33333333 -0.00000000  0.00000000       0.009
   0.40000000 -0.00000000  0.00000000       0.009
   0.46666667  0.00000000  0.00000000       0.009
   0.00000000  0.06666667  0.00000000       0.009
   0.06666667  0.06666667  0.00000000       0.009
   0.13333333  0.06666667  0.00000000       0.009
   0.20000000  0.06666667  0.00000000       0.009
   0.26666667  0.06666667  0.00000000       0.009
   0.33333333  0.06666667  0.00000000       0.009
   0.40000000  0.06666667  0.00000000       0.009
   0.46666667  0.06666667  0.00000000       0.009
  -0.46666667  0.06666667  0.00000000       0.009
  -0.40000000  0.06666667  0.00000000       0.009
  -0.33333333  0.06666667  0.00000000       0.009
  -0.26666667  0.06666667  0.00000000       0.009
  -0.20000000  0.06666667  0.00000000       0.009
  -0.13333333  0.06666667  0.00000000       0.009
  -0.06666667  0.06666667  0.00000000       0.009
   0.00000000  0.13333333  0.00000000       0.009
   0.06666667  0.13333333  0.00000000       0.009
   0.13333333  0.13333333  0.00000000       0.009
   0.20000000  0.13333333  0.00000000       0.009
   0.26666667  0.13333333  0.00000000       0.009
   0.33333333  0.13333333  0.00000000       0.009
   0.40000000  0.13333333  0.00000000       0.009
   0.46666667  0.13333333  0.00000000       0.009
  -0.46666667  0.13333333  0.00000000       0.009
  -0.40000000  0.13333333  0.00000000       0.009
  -0.33333333  0.13333333  0.00000000       0.009
  -0.26666667  0.13333333  0.00000000       0.009
  -0.20000000  0.13333333  0.00000000       0.009
  -0.13333333  0.13333333  0.00000000       0.009
  -0.06666667  0.13333333  0.00000000       0.009
   0.00000000  0.20000000  0.00000000       0.009
   0.06666667  0.20000000  0.00000000       0.009
   0.13333333  0.20000000  0.00000000       0.009
   0.20000000  0.20000000  0.00000000       0.009
   0.26666667  0.20000000  0.00000000       0.009
   0.33333333  0.20000000  0.00000000       0.009
   0.40000000  0.20000000  0.00000000       0.009
   0.46666667  0.20000000  0.00000000       0.009
  -0.46666667  0.20000000  0.00000000       0.009
  -0.40000000  0.20000000  0.00000000       0.009
  -0.33333333  0.20000000  0.00000000       0.009
  -0.26666667  0.20000000  0.00000000       0.009
  -0.20000000  0.20000000  0.00000000       0.009
  -0.13333333  0.20000000  0.00000000       0.009
  -0.06666667  0.20000000  0.00000000       0.009
   0.00000000  0.26666667  0.00000000       0.009
   0.06666667  0.26666667  0.00000000       0.009
   0.13333333  0.26666667  0.00000000       0.009
   0.20000000  0.26666667  0.00000000       0.009
   0.26666667  0.26666667  0.00000000       0.009
   0.33333333  0.26666667  0.00000000       0.009
   0.40000000  0.26666667  0.00000000       0.009
[...]
   0.00000000  0.46666667  0.00000000       0.009
   0.06666667  0.46666667  0.00000000       0.009
   0.13333333  0.46666667  0.00000000       0.009
   0.20000000  0.46666667  0.00000000       0.009
   0.26666667  0.46666667  0.00000000       0.009
   0.33333333  0.46666667  0.00000000       0.009
   0.40000000  0.46666667  0.00000000       0.009
   0.46666667  0.46666667  0.00000000       0.009
  -0.46666667  0.46666667  0.00000000       0.009
  -0.40000000  0.46666667  0.00000000       0.009
  -0.33333333  0.46666667  0.00000000       0.009
  -0.26666667  0.46666667  0.00000000       0.009
  -0.20000000  0.46666667  0.00000000       0.009
  -0.13333333  0.46666667  0.00000000       0.009
  -0.06666667  0.46666667  0.00000000       0.009

 position of ions in fractional coordinates (direct lattice)
   0.00000000  0.00000000  0.50000000
   0.66666885  0.33333464  0.50000000

 position of ions in cartesian coordinates  (Angst):
   0.00000000  0.00000000  7.50000000
   1.51745228  0.87610001  7.50000000

 k-point   1 :   0.0000 0.0000 0.0000  plane waves:    3247
 k-point   2 :   0.0667-0.0000 0.0000  plane waves:    3243
 k-point   3 :   0.1333-0.0000 0.0000  plane waves:    3240
 k-point   4 :   0.2000 0.0000 0.0000  plane waves:    3236
 k-point   5 :   0.2667-0.0000 0.0000  plane waves:    3242
 k-point   6 :   0.3333-0.0000 0.0000  plane waves:    3228
 k-point   7 :   0.4000-0.0000 0.0000  plane waves:    3212
 k-point   8 :   0.4667 0.0000 0.0000  plane waves:    3200
 k-point   9 :   0.0000 0.0667 0.0000  plane waves:    3243
 k-point  10 :   0.0667 0.0667 0.0000  plane waves:    3245
 k-point  11 :   0.1333 0.0667 0.0000  plane waves:    3239
 k-point  12 :   0.2000 0.0667 0.0000  plane waves:    3237
 k-point  13 :   0.2667 0.0667 0.0000  plane waves:    3220
 k-point  14 :   0.3333 0.0667 0.0000  plane waves:    3209
 k-point  15 :   0.4000 0.0667 0.0000  plane waves:    3214
 k-point  16 :   0.4667 0.0667 0.0000  plane waves:    3216
 k-point  17 :  -0.4667 0.0667 0.0000  plane waves:    3214
 k-point  18 :  -0.4000 0.0667 0.0000  plane waves:    3209
 k-point  19 :  -0.3333 0.0667 0.0000  plane waves:    3220
 k-point  20 :  -0.2667 0.0667 0.0000  plane waves:    3237
 k-point  21 :  -0.2000 0.0667 0.0000  plane waves:    3239
 k-point  22 :  -0.1333 0.0667 0.0000  plane waves:    3245
 k-point  23 :  -0.0667 0.0667 0.0000  plane waves:    3243
 k-point  24 :   0.0000 0.1333 0.0000  plane waves:    3240
 k-point  25 :   0.0667 0.1333 0.0000  plane waves:    3239
 k-point  26 :   0.1333 0.1333 0.0000  plane waves:    3239
 k-point  27 :   0.2000 0.1333 0.0000  plane waves:    3221
 k-point  28 :   0.2667 0.1333 0.0000  plane waves:    3211
 k-point  29 :   0.3333 0.1333 0.0000  plane waves:    3222
 k-point  30 :   0.4000 0.1333 0.0000  plane waves:    3218
 k-point  31 :   0.4667 0.1333 0.0000  plane waves:    3218
 k-point  32 :  -0.4667 0.1333 0.0000  plane waves:    3222
 k-point  33 :  -0.4000 0.1333 0.0000  plane waves:    3211
 k-point  34 :  -0.3333 0.1333 0.0000  plane waves:    3221
 k-point  35 :  -0.2667 0.1333 0.0000  plane waves:    3239
 k-point  36 :  -0.2000 0.1333 0.0000  plane waves:    3239
 k-point  37 :  -0.1333 0.1333 0.0000  plane waves:    3240
 k-point  38 :  -0.0667 0.1333 0.0000  plane waves:    3245
 k-point  39 :   0.0000 0.2000 0.0000  plane waves:    3236
 k-point  40 :   0.0667 0.2000 0.0000  plane waves:    3237
 k-point  41 :   0.1333 0.2000 0.0000  plane waves:    3221
 k-point  42 :   0.2000 0.2000 0.0000  plane waves:    3212
 k-point  43 :   0.2667 0.2000 0.0000  plane waves:    3207
 k-point  44 :   0.3333 0.2000 0.0000  plane waves:    3206
 k-point  45 :   0.4000 0.2000 0.0000  plane waves:    3216
 k-point  46 :   0.4667 0.2000 0.0000  plane waves:    3206
 k-point  47 :  -0.4667 0.2000 0.0000  plane waves:    3207
 k-point  48 :  -0.4000 0.2000 0.0000  plane waves:    3212
 k-point  49 :  -0.3333 0.2000 0.0000  plane waves:    3221
 k-point  50 :  -0.2667 0.2000 0.0000  plane waves:    3237
 k-point  51 :  -0.2000 0.2000 0.0000  plane waves:    3236
 k-point  52 :  -0.1333 0.2000 0.0000  plane waves:    3239
 k-point  53 :  -0.0667 0.2000 0.0000  plane waves:    3239
 k-point  54 :   0.0000 0.2667 0.0000  plane waves:    3242
 k-point  55 :   0.0667 0.2667 0.0000  plane waves:    3220
 k-point  56 :   0.1333 0.2667 0.0000  plane waves:    3211
 k-point  57 :   0.2000 0.2667 0.0000  plane waves:    3207
 k-point  58 :   0.2667 0.2667 0.0000  plane waves:    3200
 k-point  59 :   0.3333 0.2667 0.0000  plane waves:    3218
 k-point  60 :   0.4000 0.2667 0.0000  plane waves:    3218
[...]
 k-point  99 :   0.0000 0.4667 0.0000  plane waves:    3200
 k-point 100 :   0.0667 0.4667 0.0000  plane waves:    3216
 k-point 101 :   0.1333 0.4667 0.0000  plane waves:    3218
 k-point 102 :   0.2000 0.4667 0.0000  plane waves:    3206
 k-point 103 :   0.2667 0.4667 0.0000  plane waves:    3200
 k-point 104 :   0.3333 0.4667 0.0000  plane waves:    3206
 k-point 105 :   0.4000 0.4667 0.0000  plane waves:    3218
 k-point 106 :   0.4667 0.4667 0.0000  plane waves:    3216
 k-point 107 :  -0.4667 0.4667 0.0000  plane waves:    3200
 k-point 108 :  -0.4000 0.4667 0.0000  plane waves:    3214
 k-point 109 :  -0.3333 0.4667 0.0000  plane waves:    3222
 k-point 110 :  -0.2667 0.4667 0.0000  plane waves:    3207
 k-point 111 :  -0.2000 0.4667 0.0000  plane waves:    3207
 k-point 112 :  -0.1333 0.4667 0.0000  plane waves:    3222
 k-point 113 :  -0.0667 0.4667 0.0000  plane waves:    3214

 maximum and minimum number of plane-waves per node :       244      219

 maximum number of plane-waves:      3247
 maximum index in each direction:
   IXMAX=    6   IYMAX=    5   IZMAX=   27
   IXMIN=   -6   IYMIN=   -6   IZMIN=  -27

 parallel 3D FFT for wavefunctions:
    minimum data exchange during FFTs selected (reduces bandwidth)
 parallel 3D FFT for charge:
    minimum data exchange during FFTs selected (reduces bandwidth)

 Broyden mixing: mesh for mixing (old mesh)
   NGX = 11   NGY = 11   NGZ = 55
  (NGX  = 48   NGY  = 48   NGZ  =224)
  gives a total of   6655 points

 initial charge density was supplied:
 charge density of overlapping atoms calculated
 number of electron       8.0000000 magnetization
 keeping initial charge density in first step

 Maximum index for augmentation-charges         2588 (set IRDMAX)

 First call to EWALD:  gamma=   0.360
 Maximum number of real-space cells 5x 5x 1
 Maximum number of reciprocal cells 2x 2x 7

--------------------------------------- Iteration      1(   1)  ---------------------------------------

 eigenvalue-minimisations  :  1808
 total energy-change (2. order) : 0.4409878E+02  (-0.2990820E+03)
 number of electron       8.0000000 magnetization
 augmentation part        8.0000000 magnetization

 Free energy of the ion-electron system (eV)
  alpha Z        PSCENC =         2.74628370
  Ewald energy   TEWEN  =       470.48180516
  -Hartree energ DENC   =      -709.38621063
  -exchange      EXHF   =         0.00000000
  -V(xc)+E(xc)   XCENC  =        23.99172414
  PAW double counting   =       217.04409276     -218.18290438
  entropy T*S    EENTRO =        -0.00122014
  eigenvalues    EBANDS =       -36.89257736
  atomic energy  EATOM  =       294.29778662
  Solvation  Ediel_sol  =         0.00000000
  free energy    TOTEN  =        44.09877987 eV

  energy without entropy =       44.10000001  energy(sigma->0) =       44.09938994

[...]

 eigenvalue-minimisations  :  3032
 total energy-change (2. order) :-0.5487466E+02  (-0.5002741E+02)
 number of electron       8.0000000 magnetization
 augmentation part        8.0000000 magnetization

[...]

 Broyden mixing:
  rms(total) = 0.26959E+00    rms(broyden)= 0.26951E+00
  rms(prec ) = 0.29198E+00
  weight for this iteration     100.00

[...]

 eigenvalues of (default mixing * dielectric matrix)
  average eigenvalue GAMMA=   2.5121
  2.5121

[...]

 eigenvalue-minimisations  :  1912
 total energy-change (2. order) : 0.1601950E-04  (-0.2026164E-05)
 number of electron       8.0000000 magnetization
 augmentation part        0.1026891 magnetization

[...]

 Broyden mixing:
  rms(total) = 0.68740E-06    rms(broyden)= 0.67166E-06
  rms(prec ) = 0.76724E-06
  weight for this iteration     100.00

 eigenvalues of (default mixing * dielectric matrix)
  average eigenvalue GAMMA=   2.6874
  9.5776  6.0335  3.8806  3.0234  2.6880  2.5419  2.4065  1.9902  0.5625  1.0705
  0.9990  0.9768  0.9368  0.9368

[...]

--------------------------------------- Iteration      1(  20)  ---------------------------------------

 eigenvalue-minimisations  :  2216
 total energy-change (2. order) :-0.5394156E-08  (-0.7237898E-11)
 number of electron       8.0000000 magnetization
 augmentation part        0.1026870 magnetization

 Free energy of the ion-electron system (eV)
  alpha Z        PSCENC =         2.74628370
  Ewald energy   TEWEN  =       470.48180516
  -Hartree energ DENC   =      -716.77511459
  -exchange      EXHF   =         0.00000000
  -V(xc)+E(xc)   XCENC  =        24.31833550
  PAW double counting   =       355.51150588     -356.67445022
  entropy T*S    EENTRO =        -0.00050150
  eigenvalues    EBANDS =       -88.26570876
  atomic energy  EATOM  =       294.29778662
  Solvation  Ediel_sol  =         0.00000000
  free energy    TOTEN  =       -14.36005821 eV

  energy without entropy =      -14.35955671  energy(sigma->0) =      -14.35980746

 average (electrostatic) potential at core
  the test charge radii are     0.6991
  (the norm of the test charge is              1.0000)
       1 -60.6695       2 -60.6695

 E-fermi :  -3.9997     XC(G=0):  -2.5913     alpha+bet : -1.6753

 Fermi energy:        -3.9997179145

 k-point     1 :       0.0000    0.0000    0.0000
  band No.  band energies     occupation
      1     -19.1003      2.00000
      2      -8.2252      2.00000
      3      -6.8344      2.00000
      4      -6.8343      2.00000
      5      -2.4868      0.00000
      6       0.7105      0.00000
      7       0.9842      0.00000
      8       0.9844      0.00000

[...]

 k-point   113 :      -0.0667    0.4667    0.0000
  band No.  band energies     occupation
      1     -16.3916      2.00000
      2     -13.5827      2.00000
      3      -8.8482      2.00000
      4      -5.5777      2.00000
      5      -2.4730      0.00000
      6      -1.2743      0.00000
      7       4.6668      0.00000
      8       5.0966      0.00000

 soft charge-density along one line, spin component           1
         0         1         2         3         4         5         6         7         8         9
 total charge-density along one line

------------------------ aborting loop because EDIFF is reached ----------------------------------------

         DFTD3 V3.0 Rev 1
 IVDW         = 12
 DF pbe
 parameters
 VDW_S6       =    1.0000
 VDW_S8       =    0.7875
 VDW_A1       =    0.4289
 VDW_A2       =    4.4407
 k1-k3        =   16.0000    1.3333   -4.0000
 VDW_RADIUS   =   50.2022 A
 VDW_CNRADIUS =   21.1671 A
 Edisp (eV)   -0.12467

 E6    (eV) :    -0.0852
 E8    (eV) :    -0.0395
 % E8        : 31.65

  FORCE on cell =-STRESS in cart. coord.  units (eV):
  Direction    XX          YY          ZZ          XY          YZ          ZX
  Alpha Z     2.74628     2.74628     2.74628
  Ewald     688.95492   688.95533  -907.42841    -0.00141     0.00000    -0.00000
  Hartree   699.71317   699.71321  -682.65127    -0.00040     0.00000    -0.00000
  E(xc)     -26.54842   -26.54841   -27.52263    -0.00000    -0.00000     0.00000
  Local   -1477.39932 -1477.39972  1493.69614     0.00179    -0.00000     0.00000
  n-local    -0.85568    -0.85563    -2.62694     0.00006    -0.00000    -0.00000
  augment    -0.33774    -0.33774    -0.32040    -0.00000    -0.00000    -0.00000
  Kinetic    97.86060    97.86015   124.09840    -0.00014    -0.00000     0.00000
  Fock        0.00000     0.00000     0.00000     0.00000     0.00000     0.00000
  vdW        -0.09825    -0.09825    -0.00106     0.00000    -0.00000    -0.00000
  Total     -15.96444   -15.96477    -0.00989    -0.00010    -0.00000     0.00000
  in kB    -213.77625  -213.78069    -0.13242    -0.00138    -0.00000     0.00000

 VOLUME and BASIS-vectors are now :
  energy-cutoff  :      520.00
  volume of cell :      119.65
      direct lattice vectors                 reciprocal lattice vectors
     3.034871436  0.000000000  0.000000000     0.329503250  0.190233292  0.000000000
    -1.517399943  2.628289746  0.000000000     0.000000000  0.380475555  0.000000000
     0.000000000  0.000000000 15.000000000     0.000000000  0.000000000  0.066666667

  length of vectors
     3.034871436  3.034865660 15.000000000     0.380474831  0.380475555  0.066666667

 FORCES acting on ions
    electron-ion (+dipol)            ewald-force                    non-local-force                 convergence-correction
   -.263E-02 0.564E-03 0.382E-05   0.241E-02 -.444E-03 0.282E-19   -.104E-03 0.924E-05 -.561E-06   -.102E-05 0.692E-07 -.314E-05
   0.263E-02 -.563E-03 0.331E-05   -.241E-02 0.444E-03 -.282E-19   0.103E-03 -.965E-05 -.483E-06   0.356E-06 -.714E-06 -.288E-05
   0.102E-05 0.103E-05 0.712E-05   0.355E-15 -.234E-15 0.333E-22   -.378E-06 -.409E-06 -.104E-05   -.663E-06 -.644E-06 -.601E-05

 POSITION                                       TOTAL-FORCE (eV/Angst)
      0.00000      0.00000      7.50000        -0.000322      0.000130      0.000000
      1.51745      0.87610      7.50000         0.000322     -0.000130     -0.000000
    total drift:                               -0.000000     -0.000000      0.000000

  FREE ENERGIE OF THE ION-ELECTRON SYSTEM (eV)
  free  energy   TOTEN  =       -14.48472855 eV

  energy  without entropy=      -14.48422705  energy(sigma->0) =      -14.48447780