 vasp.6.3.1 04May22 (build Aug 04 2022 13:02:54) complex

 executed on             LinuxIFC date 2024.11.27  04:58:22

 INCAR:
   ISTART = 1            (Read existing wavefunction
   ISPIN = 1            (Non-Spin polarised DFT)
   LREAL = .FALSE.       (Projection operators: automatic)
   ENCUT = 520        (Cut-off energy for plane wave basis set, in eV)
   PREC = A       (Precision level)
   LWAVE = .FALSE.        (Write WAVECAR or not)
   LCHARG = .FALSE.        (Write CHGCAR or not)
   ADDGRID = .TRUE.        (Increase grid
   KSPACING = 0.2000
   KGAMMA = .FALSE.
   IVDW = 12
   ISMEAR = 0            (Gaussian smearing
   SIGMA = 0.05         (Smearing value in eV
   NELM = 200           (Max electronic SCF steps)
   NELMIN = 6            (Min electronic SCF steps)
   EDIFF = 1E-08        (SCF energy convergence
   NSW = 0          (Max ionic steps)
   IBRION = -1            (Algorithm: 0-MD
   ISIF = 3           (Stress/relaxation: 2-Ions, 3-Shape/Ions/V, 4-Shape/Ions)
   EDIFFG = -1E-04        (Ionic convergence
   ISYM = 0
   SYMPREC = 1E-08
   NCORE = 14

 POTCAR:    PAW_PBE C 08Apr2002
|           W    W    AA    RRRRR   N    N  II  N    N   GGGG   !!!           |
|           W    W   A  A   R    R  NN   N  II  NN   N  G    G  !!!           |
|           W    W  A    A  R    R  N N  N  II  N N  N  G       !!!           |
|           W WW W  AAAAAA  RRRRR   N  N N  II  N  N N  G  GGG   !            |
|           WW  WW  A    A  R   R   N   NN  II  N   NN  G    G                |
|           W    W  A    A  R    R  N    N  II  N    N   GGGG   !!!           |
|     For optimal performance we recommend to set                             |
|       NCORE = 2 up to number-of-cores-per-socket                            |
|     This setting can greatly improve the performance of VASP for DFT.       |
|     The default, NCORE=1 might be grossly inefficient on modern             |
|     multi-core architectures or massively parallel machines. Do your        |
|     Unfortunately you need to use the default for GW and RPA                |
|     calculations (for HF NCORE is supported but not extensively tested      |
|     yet).                                                                   |

 POTCAR:    PAW_PBE C 08Apr2002
   VRHFIN =C: s2p2

   TITEL  = PAW_PBE C 08Apr2002
   POMASS =   12.011; ZVAL   =    4.000    mass and valenz
   ENMAX  =  400.000; ENMIN  =  300.000 eV

  PAW_PBE C 08Apr2002                   :

 POSCAR: Graphene
  positions in direct lattice
 exchange correlation table for  LEXCH =        8
   RHO(1)=    0.500       N(1)  =     2000
   RHO(2)=  100.500       N(2)  =     4000

 ion  position               nearest neighbor table
   1  0.000  0.000  0.500-
   2  0.667  0.333  0.500-

IMPORTANT INFORMATION: All symmetrisations will be switched off!
NOSYMM: (Re-)initialisation of all symmetry stuff for point group C_1.

                                     Primitive cell

  volume of cell :     187.5582

  direct lattice vectors                    reciprocal lattice vectors
     3.799757732  0.000000000  0.000000000     0.263174673  0.151939578  0.000000000
    -1.899834074  3.290704235  0.000000000     0.000000000  0.303886320  0.000000000
     0.000000000  0.000000000 15.000000000     0.000000000  0.000000000  0.066666667

  length of vectors
     3.799757732  3.799750501 15.000000000     0.303885742  0.303886320  0.066666667

  position of ions in fractional coordinates (direct lattice)
     0.000000000  0.000000000  0.500000000
     0.666668846  0.333334637  0.500000000

  ion indices of the primitive-cell ions
   primitive index   ion index
                 1           1
                 2           2

 KPOINTS: K-Spacing Value to Generate K-Mesh: 0.03

Automatic generation of k-mesh.
 Grid dimensions read from file:
 generate k-points for:   12   12    1

 Generating k-lattice:

  Cartesian coordinates                     Fractional coordinates (reciprocal lattice)
     0.021931223  0.012661631  0.000000000     0.083333333  0.000000000  0.000000000
     0.000000000  0.025323860  0.000000000     0.000000000  0.083333333  0.000000000
     0.000000000  0.000000000  0.066666667     0.000000000  0.000000000  1.000000000

  Length of vectors
     0.025323812  0.025323860  0.066666667

  Shift w.r.t. Gamma in fractional coordinates (k-lattice)
     0.000000000  0.000000000  0.000000000

 Subroutine IBZKPT returns following result:

 Found     74 irreducible k-points:

 Following reciprocal coordinates:
            Coordinates               Weight
  0.000000  0.000000  0.000000      1.000000
  0.083333  0.000000  0.000000      2.000000
  0.166667 -0.000000  0.000000      2.000000
  0.250000 -0.000000  0.000000      2.000000
  0.333333 -0.000000  0.000000      2.000000
  0.416667 -0.000000  0.000000      2.000000
  0.500000 -0.000000  0.000000      1.000000
  0.000000  0.083333  0.000000      2.000000
  0.083333  0.083333  0.000000      2.000000
  0.166667  0.083333  0.000000      2.000000
  0.250000  0.083333  0.000000      2.000000
  0.333333  0.083333  0.000000      2.000000
  0.416667  0.083333  0.000000      2.000000
  0.500000  0.083333  0.000000      2.000000
 -0.416667  0.083333  0.000000      2.000000
 -0.333333  0.083333  0.000000      2.000000
 -0.250000  0.083333  0.000000      2.000000
 -0.166667  0.083333  0.000000      2.000000
 -0.083333  0.083333  0.000000      2.000000
  0.000000  0.166667  0.000000      2.000000
  0.083333  0.166667  0.000000      2.000000
  0.166667  0.166667  0.000000      2.000000
  0.250000  0.166667  0.000000      2.000000
  0.333333  0.166667  0.000000      2.000000
  0.416667  0.166667  0.000000      2.000000
  0.500000  0.166667  0.000000      2.000000
 -0.416667  0.166667  0.000000      2.000000
 -0.333333  0.166667  0.000000      2.000000
 -0.250000  0.166667  0.000000      2.000000
 -0.166667  0.166667  0.000000      2.000000
 -0.083333  0.166667  0.000000      2.000000
  0.000000  0.250000  0.000000      2.000000
  0.083333  0.250000  0.000000      2.000000
  0.166667  0.250000  0.000000      2.000000
  0.250000  0.250000  0.000000      2.000000
  0.333333  0.250000  0.000000      2.000000
  0.416667  0.250000  0.000000      2.000000
  0.500000  0.250000  0.000000      2.000000
 -0.416667  0.250000  0.000000      2.000000
 -0.333333  0.250000  0.000000      2.000000
 -0.250000  0.250000  0.000000      2.000000
 -0.166667  0.250000  0.000000      2.000000
 -0.083333  0.250000  0.000000      2.000000
  0.000000  0.333333  0.000000      2.000000
  0.083333  0.333333  0.000000      2.000000
  0.166667  0.333333  0.000000      2.000000
  0.250000  0.333333  0.000000      2.000000
  0.333333  0.333333  0.000000      2.000000
  0.416667  0.333333  0.000000      2.000000
  0.500000  0.333333  0.000000      2.000000
 -0.416667  0.333333  0.000000      2.000000
 -0.333333  0.333333  0.000000      2.000000
 -0.250000  0.333333  0.000000      2.000000
 -0.166667  0.333333  0.000000      2.000000
 -0.083333  0.333333  0.000000      2.000000
  0.000000  0.416667  0.000000      2.000000
  0.083333  0.416667  0.000000      2.000000
  0.166667  0.416667  0.000000      2.000000
  0.250000  0.416667  0.000000      2.000000
  0.333333  0.416667  0.000000      2.000000
  0.416667  0.416667  0.000000      2.000000
  0.500000  0.416667  0.000000      2.000000
 -0.416667  0.416667  0.000000      2.000000
 -0.333333  0.416667  0.000000      2.000000
 -0.250000  0.416667  0.000000      2.000000
 -0.166667  0.416667  0.000000      2.000000
 -0.083333  0.416667  0.000000      2.000000
  0.000000  0.500000  0.000000      1.000000
  0.083333  0.500000  0.000000      2.000000
  0.166667  0.500000  0.000000      2.000000
  0.250000  0.500000  0.000000      2.000000
  0.333333  0.500000  0.000000      2.000000
  0.416667  0.500000  0.000000      2.000000
  0.500000  0.500000  0.000000      1.000000

 Following cartesian coordinates:
            Coordinates               Weight
  0.000000  0.000000  0.000000      1.000000
  0.021931  0.012662  0.000000      2.000000
  0.043862  0.025323  0.000000      2.000000
  0.065794  0.037985  0.000000      2.000000
  0.087725  0.050647  0.000000      2.000000
  0.109656  0.063308  0.000000      2.000000
  0.131587  0.075970  0.000000      1.000000
  0.000000  0.025324  0.000000      2.000000
  0.021931  0.037985  0.000000      2.000000
  0.043862  0.050647  0.000000      2.000000
  0.065794  0.063309  0.000000      2.000000
  0.087725  0.075970  0.000000      2.000000
  0.109656  0.088632  0.000000      2.000000
  0.131587  0.101294  0.000000      2.000000
 -0.109656 -0.037984  0.000000      2.000000
 -0.087725 -0.025323  0.000000      2.000000
 -0.065794 -0.012661  0.000000      2.000000
 -0.043862  0.000001  0.000000      2.000000
 -0.021931  0.012662  0.000000      2.000000
  0.000000  0.050648  0.000000      2.000000
  0.021931  0.063309  0.000000      2.000000
  0.043862  0.075971  0.000000      2.000000
  0.065794  0.088633  0.000000      2.000000
  0.087725  0.101294  0.000000      2.000000
  0.109656  0.113956  0.000000      2.000000
  0.131587  0.126618  0.000000      2.000000
 -0.109656 -0.012660  0.000000      2.000000
 -0.087725  0.000001  0.000000      2.000000
 -0.065794  0.012663  0.000000      2.000000
 -0.043862  0.025324  0.000000      2.000000
 -0.021931  0.037986  0.000000      2.000000
  0.000000  0.075972  0.000000      2.000000
  0.021931  0.088633  0.000000      2.000000
  0.043862  0.101295  0.000000      2.000000
  0.065794  0.113956  0.000000      2.000000
  0.087725  0.126618  0.000000      2.000000
  0.109656  0.139280  0.000000      2.000000
  0.131587  0.151941  0.000000      2.000000
 -0.109656  0.012663  0.000000      2.000000
 -0.087725  0.025325  0.000000      2.000000
 -0.065794  0.037987  0.000000      2.000000
 -0.043862  0.050648  0.000000      2.000000
 -0.021931  0.063310  0.000000      2.000000
  0.000000  0.101295  0.000000      2.000000
  0.021931  0.113957  0.000000      2.000000
  0.043862  0.126619  0.000000      2.000000
  0.065794  0.139280  0.000000      2.000000
  0.087725  0.151942  0.000000      2.000000
  0.109656  0.164604  0.000000      2.000000
  0.131587  0.177265  0.000000      2.000000
 -0.109656  0.037987  0.000000      2.000000
 -0.087725  0.050649  0.000000      2.000000
 -0.065794  0.063311  0.000000      2.000000
 -0.043862  0.075972  0.000000      2.000000
 -0.021931  0.088634  0.000000      2.000000
  0.000000  0.126619  0.000000      2.000000
  0.021931  0.139281  0.000000      2.000000
  0.043862  0.151943  0.000000      2.000000
  0.065794  0.164604  0.000000      2.000000
  0.087725  0.177266  0.000000      2.000000
  0.109656  0.189927  0.000000      2.000000
  0.131587  0.202589  0.000000      2.000000
 -0.109656  0.063311  0.000000      2.000000
 -0.087725  0.075973  0.000000      2.000000
 -0.065794  0.088634  0.000000      2.000000
 -0.043862  0.101296  0.000000      2.000000
 -0.021931  0.113958  0.000000      2.000000
  0.000000  0.151943  0.000000      1.000000
  0.021931  0.164605  0.000000      2.000000
  0.043862  0.177266  0.000000      2.000000
  0.065794  0.189928  0.000000      2.000000
[...]
   0.13158734  0.22791295  0.00000000       0.007

 k-points in reciprocal lattice and weights: K-Spacing Value to Generate K-Mesh: 0.03
   0.00000000  0.00000000  0.00000000       0.007
   0.08333333  0.00000000  0.00000000       0.014
   0.16666667 -0.00000000  0.00000000       0.014
   0.25000000 -0.00000000  0.00000000       0.014
   0.33333333 -0.00000000  0.00000000       0.014
   0.41666667 -0.00000000  0.00000000       0.014
   0.50000000 -0.00000000  0.00000000       0.007
   0.00000000  0.08333333  0.00000000       0.014
   0.08333333  0.08333333  0.00000000       0.014
   0.16666667  0.08333333  0.00000000       0.014
   0.25000000  0.08333333  0.00000000       0.014
   0.33333333  0.08333333  0.00000000       0.014
   0.41666667  0.08333333  0.00000000       0.014
   0.50000000  0.08333333  0.00000000       0.014
  -0.41666667  0.08333333  0.00000000       0.014
  -0.33333333  0.08333333  0.00000000       0.014
  -0.25000000  0.08333333  0.00000000       0.014
  -0.16666667  0.08333333  0.00000000       0.014
  -0.08333333  0.08333333  0.00000000       0.014
   0.00000000  0.16666667  0.00000000       0.014
   0.08333333  0.16666667  0.00000000       0.014
   0.16666667  0.16666667  0.00000000       0.014
   0.25000000  0.16666667  0.00000000       0.014
   0.33333333  0.16666667  0.00000000       0.014
   0.41666667  0.16666667  0.00000000       0.014
   0.50000000  0.16666667  0.00000000       0.014
  -0.41666667  0.16666667  0.00000000       0.014
  -0.33333333  0.16666667  0.00000000       0.014
  -0.25000000  0.16666667  0.00000000       0.014
  -0.16666667  0.16666667  0.00000000       0.014
  -0.08333333  0.16666667  0.00000000       0.014
   0.00000000  0.25000000  0.00000000       0.014
   0.08333333  0.25000000  0.00000000       0.014
   0.16666667  0.25000000  0.00000000       0.014
   0.25000000  0.25000000  0.00000000       0.014
   0.33333333  0.25000000  0.00000000       0.014
   0.41666667  0.25000000  0.00000000       0.014
   0.50000000  0.25000000  0.00000000       0.014
  -0.41666667  0.25000000  0.00000000       0.014
  -0.33333333  0.25000000  0.00000000       0.014
  -0.25000000  0.25000000  0.00000000       0.014
  -0.16666667  0.25000000  0.00000000       0.014
  -0.08333333  0.25000000  0.00000000       0.014
   0.00000000  0.33333333  0.00000000       0.014
   0.08333333  0.33333333  0.00000000       0.014
   0.16666667  0.33333333  0.00000000       0.014
   0.25000000  0.33333333  0.00000000       0.014
   0.33333333  0.33333333  0.00000000       0.014
   0.41666667  0.33333333  0.00000000       0.014
   0.50000000  0.33333333  0.00000000       0.014
  -0.41666667  0.33333333  0.00000000       0.014
  -0.33333333  0.33333333  0.00000000       0.014
  -0.25000000  0.33333333  0.00000000       0.014
  -0.16666667  0.33333333  0.00000000       0.014
  -0.08333333  0.33333333  0.00000000       0.014
   0.00000000  0.41666667  0.00000000       0.014
   0.08333333  0.41666667  0.00000000       0.014
   0.16666667  0.41666667  0.00000000       0.014
   0.25000000  0.41666667  0.00000000       0.014
   0.33333333  0.41666667  0.00000000       0.014
   0.41666667  0.41666667  0.00000000       0.014
   0.50000000  0.41666667  0.00000000       0.014
  -0.41666667  0.41666667  0.00000000       0.014
  -0.33333333  0.41666667  0.00000000       0.014
  -0.25000000  0.41666667  0.00000000       0.014
  -0.16666667  0.41666667  0.00000000       0.014
  -0.08333333  0.41666667  0.00000000       0.014
   0.00000000  0.50000000  0.00000000       0.007
   0.08333333  0.50000000  0.00000000       0.014
   0.16666667  0.50000000  0.00000000       0.014
   0.25000000  0.50000000  0.00000000       0.014
   0.33333333  0.50000000  0.00000000       0.014
   0.41666667  0.50000000  0.00000000       0.014
   0.50000000  0.50000000  0.00000000       0.007

 position of ions in fractional coordinates (direct lattice)
   0.00000000  0.00000000  0.50000000
   0.66666885  0.33333464  0.50000000

 position of ions in cartesian coordinates  (Angst):
   0.00000000  0.00000000  7.50000000
   1.89989960  1.09690570  7.50000000

 k-point   1 :   0.0000 0.0000 0.0000  plane waves:    5053
 k-point   2 :   0.0833 0.0000 0.0000  plane waves:    5019
 k-point   3 :   0.1667-0.0000 0.0000  plane waves:    5012
 k-point   4 :   0.2500-0.0000 0.0000  plane waves:    5030
 k-point   5 :   0.3333-0.0000 0.0000  plane waves:    5046
 k-point   6 :   0.4167-0.0000 0.0000  plane waves:    5046
 k-point   7 :   0.5000-0.0000 0.0000  plane waves:    5052
 k-point   8 :   0.0000 0.0833 0.0000  plane waves:    5019
 k-point   9 :   0.0833 0.0833 0.0000  plane waves:    5005
 k-point  10 :   0.1667 0.0833 0.0000  plane waves:    5032
 k-point  11 :   0.2500 0.0833 0.0000  plane waves:    5042
 k-point  12 :   0.3333 0.0833 0.0000  plane waves:    5051
 k-point  13 :   0.4167 0.0833 0.0000  plane waves:    5065
 k-point  14 :   0.5000 0.0833 0.0000  plane waves:    5065
 k-point  15 :  -0.4167 0.0833 0.0000  plane waves:    5051
 k-point  16 :  -0.3333 0.0833 0.0000  plane waves:    5042
 k-point  17 :  -0.2500 0.0833 0.0000  plane waves:    5032
 k-point  18 :  -0.1667 0.0833 0.0000  plane waves:    5005
 k-point  19 :  -0.0833 0.0833 0.0000  plane waves:    5019
 k-point  20 :   0.0000 0.1667 0.0000  plane waves:    5012
 k-point  21 :   0.0833 0.1667 0.0000  plane waves:    5032
 k-point  22 :   0.1667 0.1667 0.0000  plane waves:    5053
 k-point  23 :   0.2500 0.1667 0.0000  plane waves:    5062
 k-point  24 :   0.3333 0.1667 0.0000  plane waves:    5062
 k-point  25 :   0.4167 0.1667 0.0000  plane waves:    5071
 k-point  26 :   0.5000 0.1667 0.0000  plane waves:    5062
 k-point  27 :  -0.4167 0.1667 0.0000  plane waves:    5062
 k-point  28 :  -0.3333 0.1667 0.0000  plane waves:    5053
 k-point  29 :  -0.2500 0.1667 0.0000  plane waves:    5032
 k-point  30 :  -0.1667 0.1667 0.0000  plane waves:    5012
 k-point  31 :  -0.0833 0.1667 0.0000  plane waves:    5005
 k-point  32 :   0.0000 0.2500 0.0000  plane waves:    5030
 k-point  33 :   0.0833 0.2500 0.0000  plane waves:    5042
 k-point  34 :   0.1667 0.2500 0.0000  plane waves:    5062
 k-point  35 :   0.2500 0.2500 0.0000  plane waves:    5063
 k-point  36 :   0.3333 0.2500 0.0000  plane waves:    5070
 k-point  37 :   0.4167 0.2500 0.0000  plane waves:    5070
 k-point  38 :   0.5000 0.2500 0.0000  plane waves:    5063
 k-point  39 :  -0.4167 0.2500 0.0000  plane waves:    5062
 k-point  40 :  -0.3333 0.2500 0.0000  plane waves:    5042
 k-point  41 :  -0.2500 0.2500 0.0000  plane waves:    5030
 k-point  42 :  -0.1667 0.2500 0.0000  plane waves:    5032
 k-point  43 :  -0.0833 0.2500 0.0000  plane waves:    5032
 k-point  44 :   0.0000 0.3333 0.0000  plane waves:    5046
 k-point  45 :   0.0833 0.3333 0.0000  plane waves:    5051
 k-point  46 :   0.1667 0.3333 0.0000  plane waves:    5062
 k-point  47 :   0.2500 0.3333 0.0000  plane waves:    5070
 k-point  48 :   0.3333 0.3333 0.0000  plane waves:    5073
 k-point  49 :   0.4167 0.3333 0.0000  plane waves:    5070
 k-point  50 :   0.5000 0.3333 0.0000  plane waves:    5062
 k-point  51 :  -0.4167 0.3333 0.0000  plane waves:    5051
 k-point  52 :  -0.3333 0.3333 0.0000  plane waves:    5046
 k-point  53 :  -0.2500 0.3333 0.0000  plane waves:    5042
 k-point  54 :  -0.1667 0.3333 0.0000  plane waves:    5053
 k-point  55 :  -0.0833 0.3333 0.0000  plane waves:    5042
 k-point  56 :   0.0000 0.4167 0.0000  plane waves:    5046
 k-point  57 :   0.0833 0.4167 0.0000  plane waves:    5065
 k-point  58 :   0.1667 0.4167 0.0000  plane waves:    5071
 k-point  59 :   0.2500 0.4167 0.0000  plane waves:    5070
 k-point  60 :   0.3333 0.4167 0.0000  plane waves:    5070
 k-point  61 :   0.4167 0.4167 0.0000  plane waves:    5071
 k-point  62 :   0.5000 0.4167 0.0000  plane waves:    5065
 k-point  63 :  -0.4167 0.4167 0.0000  plane waves:    5046
 k-point  64 :  -0.3333 0.4167 0.0000  plane waves:    5051
 k-point  65 :  -0.2500 0.4167 0.0000  plane waves:    5062
 k-point  66 :  -0.1667 0.4167 0.0000  plane waves:    5062
 k-point  67 :  -0.0833 0.4167 0.0000  plane waves:    5051
 k-point  68 :   0.0000 0.5000 0.0000  plane waves:    5052
 k-point  69 :   0.0833 0.5000 0.0000  plane waves:    5065
 k-point  70 :   0.1667 0.5000 0.0000  plane waves:    5062
 k-point  71 :   0.2500 0.5000 0.0000  plane waves:    5063
 k-point  72 :   0.3333 0.5000 0.0000  plane waves:    5062
 k-point  73 :   0.4167 0.5000 0.0000  plane waves:    5065
 k-point  74 :   0.5000 0.5000 0.0000  plane waves:    5052

 maximum and minimum number of plane-waves per node :       381      339

 maximum number of plane-waves:      5073
 maximum index in each direction:
   IXMAX=    7   IYMAX=    7   IZMAX=   27
   IXMIN=   -7   IYMIN=   -7   IZMIN=  -27

 parallel 3D FFT for wavefunctions:
    minimum data exchange during FFTs selected (reduces bandwidth)
 parallel 3D FFT for charge:
    minimum data exchange during FFTs selected (reduces bandwidth)

 Broyden mixing: mesh for mixing (old mesh)
   NGX = 15   NGY = 15   NGZ = 55
  (NGX  = 56   NGY  = 56   NGZ  =224)
  gives a total of  12375 points

 initial charge density was supplied:
 charge density of overlapping atoms calculated
 number of electron       8.0000000 magnetization
 keeping initial charge density in first step

 Maximum index for augmentation-charges         1652 (set IRDMAX)

 First call to EWALD:  gamma=   0.310
 Maximum number of real-space cells 4x 4x 1
 Maximum number of reciprocal cells 2x 2x 6

--------------------------------------- Iteration      1(   1)  ---------------------------------------

 eigenvalue-minimisations  :  1184
 total energy-change (2. order) : 0.4323937E+02  (-0.2522839E+03)
 number of electron       8.0000000 magnetization
 augmentation part        8.0000000 magnetization

 Free energy of the ion-electron system (eV)
  alpha Z        PSCENC =         1.75191964
  Ewald energy   TEWEN  =       229.88031984
  -Hartree energ DENC   =      -474.45648701
  -exchange      EXHF   =         0.00000000
  -V(xc)+E(xc)   XCENC  =        22.37495678
  PAW double counting   =       217.04409276     -218.18290438
  entropy T*S    EENTRO =        -0.00222355
  eigenvalues    EBANDS =       -29.46809384
  atomic energy  EATOM  =       294.29778662
  Solvation  Ediel_sol  =         0.00000000
  free energy    TOTEN  =        43.23936687 eV

  energy without entropy =       43.24159042  energy(sigma->0) =       43.24047865

[...]

 eigenvalue-minimisations  :  2128
 total energy-change (2. order) :-0.4734020E+02  (-0.4588974E+02)
 number of electron       8.0000000 magnetization
 augmentation part        8.0000000 magnetization

[...]

 Broyden mixing:
  rms(total) = 0.15195E+00    rms(broyden)= 0.15194E+00
  rms(prec ) = 0.16715E+00
  weight for this iteration     100.00

[...]

 eigenvalue-minimisations  :  1816
 total energy-change (2. order) : 0.2855780E-02  (-0.2027719E-02)
 number of electron       8.0000000 magnetization
 augmentation part       -0.0154549 magnetization

[...]

 eigenvalues of (default mixing * dielectric matrix)
  average eigenvalue GAMMA=   2.2399
  2.2399

[...]

 Broyden mixing:
  rms(total) = 0.85152E-06    rms(broyden)= 0.84954E-06
  rms(prec ) = 0.10417E-05
  weight for this iteration     100.00

 eigenvalues of (default mixing * dielectric matrix)
  average eigenvalue GAMMA=   2.4950
  9.6850  4.5344  3.2949  2.9439  2.8280  2.6032  1.9698  0.4331  1.4226  0.9580
  0.9580  1.0102  1.0102  1.2792

[...]

--------------------------------------- Iteration      1(  20)  ---------------------------------------

 eigenvalue-minimisations  :   592
 total energy-change (2. order) :-0.2327340E-08  (-0.8463510E-11)
 number of electron       8.0000000 magnetization
 augmentation part       -0.0146954 magnetization

 Free energy of the ion-electron system (eV)
  alpha Z        PSCENC =         1.75191964
  Ewald energy   TEWEN  =       229.88031984
  -Hartree energ DENC   =      -473.65385445
  -exchange      EXHF   =         0.00000000
  -V(xc)+E(xc)   XCENC  =        22.27854970
  PAW double counting   =       220.35848690     -221.43095556
  entropy T*S    EENTRO =        -0.00815873
  eigenvalues    EBANDS =       -81.45808775
  atomic energy  EATOM  =       294.29778662
  Solvation  Ediel_sol  =         0.00000000
  free energy    TOTEN  =        -7.98399378 eV

  energy without entropy =       -7.97583505  energy(sigma->0) =       -7.97991441

 average (electrostatic) potential at core
  the test charge radii are     0.6991
  (the norm of the test charge is              1.0000)
       1 -61.8431       2 -61.8432

 E-fermi :  -5.3315     XC(G=0):  -2.2494     alpha+bet : -1.0687

 Fermi energy:        -5.3314505395

 k-point     1 :       0.0000    0.0000    0.0000
  band No.  band energies     occupation
      1     -16.3048      2.00000
      2      -9.2982      2.00000
      3      -6.7109      2.00000
      4      -6.5805      2.00000
      5      -6.5804      2.00000
      6      -2.3187      0.00000
      7      -1.9279      0.00000
      8      -1.9277      0.00000

[...]

 k-point    74 :       0.5000    0.5000    0.0000
  band No.  band energies     occupation
      1     -14.7351      2.00000
      2     -13.0593      2.00000
      3      -7.4905      2.00000
      4      -5.3348      1.07520
      5      -4.9699      0.00000
      6      -4.0305      0.00000
      7      -0.7651      0.00000
      8       0.1307      0.00000

 soft charge-density along one line, spin component           1
         0         1         2         3         4         5         6         7         8         9
 total charge-density along one line

------------------------ aborting loop because EDIFF is reached ----------------------------------------

         DFTD3 V3.0 Rev 1
 IVDW         = 12
 DF pbe
 parameters
 VDW_S6       =    1.0000
 VDW_S8       =    0.7875
 VDW_A1       =    0.4289
 VDW_A2       =    4.4407
 k1-k3        =   16.0000    1.3333   -4.0000
 VDW_RADIUS   =   50.2022 A
 VDW_CNRADIUS =   21.1671 A
 Edisp (eV)   -0.12473

 E6    (eV) :    -0.0864
 E8    (eV) :    -0.0383
 % E8        : 30.70

  FORCE on cell =-STRESS in cart. coord.  units (eV):
  Direction    XX          YY          ZZ          XY          YZ          ZX
  Alpha Z     1.75192     1.75192     1.75192
  Ewald     404.37506   404.37538  -578.87014    -0.00113     0.00000    -0.00000
  Hartree   446.33234   446.33244  -419.01095    -0.00050     0.00000     0.00000
  E(xc)     -24.83026   -24.83025   -25.55357    -0.00001    -0.00000    -0.00000
  Local    -939.48441  -939.48465   906.83174     0.00207    -0.00000    -0.00000
  n-local     9.07487     9.07493     8.23321     0.00015    -0.00000     0.00000
  augment     0.03869     0.03869     0.05973    -0.00000    -0.00000    -0.00000
  Kinetic    91.92588    91.92564   106.54680    -0.00011     0.00000    -0.00000
  Fock        0.00000     0.00000     0.00000     0.00000     0.00000     0.00000
  vdW        -0.06641    -0.06641    -0.00116    -0.00000     0.00000     0.00000
  Total     -10.88232   -10.88231    -0.01241     0.00046    -0.00000    -0.00000
  in kB     -92.96000   -92.95989    -0.10605     0.00394    -0.00000    -0.00000

 VOLUME and BASIS-vectors are now :
  energy-cutoff  :      520.00
  volume of cell :      187.56
      direct lattice vectors                 reciprocal lattice vectors
     3.799757732  0.000000000  0.000000000     0.263174673  0.151939578  0.000000000
    -1.899834074  3.290704235  0.000000000     0.000000000  0.303886320  0.000000000
     0.000000000  0.000000000 15.000000000     0.000000000  0.000000000  0.066666667

  length of vectors
     3.799757732  3.799750501 15.000000000     0.303885742  0.303886320  0.066666667

 FORCES acting on ions
    electron-ion (+dipol)            ewald-force                    non-local-force                 convergence-correction
   -.121E-02 0.245E-03 -.418E-06   0.154E-02 -.283E-03 0.753E-19   -.757E-03 0.136E-03 0.197E-06   -.112E-06 -.345E-07 0.223E-06
   0.121E-02 -.245E-03 -.444E-06   -.154E-02 0.283E-03 -.734E-19   0.757E-03 -.136E-03 0.215E-06   0.114E-06 0.241E-07 0.231E-06
   -.557E-08 0.215E-07 -.863E-06   0.239E-15 0.686E-16 0.190E-20   0.543E-08 -.921E-08 0.412E-06   0.183E-08 -.104E-07 0.454E-06

 POSITION                                       TOTAL-FORCE (eV/Angst)
      0.00000      0.00000      7.50000        -0.000418      0.000098     -0.000000
      1.89990      1.09691      7.50000         0.000418     -0.000098      0.000000
    total drift:                                0.000000      0.000000      0.000000

  FREE ENERGIE OF THE ION-ELECTRON SYSTEM (eV)
  free  energy   TOTEN  =        -8.10872853 eV

  energy  without entropy=       -8.10056980  energy(sigma->0) =       -8.10464916