 vasp.6.3.1 04May22 (build Aug 04 2022 13:02:54) complex

 executed on             LinuxIFC date 2024.11.27  04:54:27

 INCAR:
   ISTART = 1            (Read existing wavefunction
   ISPIN = 1            (Non-Spin polarised DFT)
   LREAL = .FALSE.       (Projection operators: automatic)
   ENCUT = 520        (Cut-off energy for plane wave basis set, in eV)
   PREC = A       (Precision level)
   LWAVE = .FALSE.        (Write WAVECAR or not)
   LCHARG = .FALSE.        (Write CHGCAR or not)
   ADDGRID = .TRUE.        (Increase grid
   KSPACING = 0.2000
   KGAMMA = .FALSE.
   IVDW = 12
   ISMEAR = 0            (Gaussian smearing
   SIGMA = 0.05         (Smearing value in eV
   NELM = 200           (Max electronic SCF steps)
   NELMIN = 6            (Min electronic SCF steps)
   EDIFF = 1E-08        (SCF energy convergence
   NSW = 0          (Max ionic steps)
   IBRION = -1            (Algorithm: 0-MD
   ISIF = 3           (Stress/relaxation: 2-Ions, 3-Shape/Ions/V, 4-Shape/Ions)
   EDIFFG = -1E-04        (Ionic convergence
   ISYM = 0
   SYMPREC = 1E-08
   NCORE = 14

 POTCAR:    PAW_PBE C 08Apr2002
|           W    W    AA    RRRRR   N    N  II  N    N   GGGG   !!!           |
|           W    W   A  A   R    R  NN   N  II  NN   N  G    G  !!!           |
|           W    W  A    A  R    R  N N  N  II  N N  N  G       !!!           |
|           W WW W  AAAAAA  RRRRR   N  N N  II  N  N N  G  GGG   !            |
|           WW  WW  A    A  R   R   N   NN  II  N   NN  G    G                |
|           W    W  A    A  R    R  N    N  II  N    N   GGGG   !!!           |
|     For optimal performance we recommend to set                             |
|       NCORE = 2 up to number-of-cores-per-socket                            |
|     This setting can greatly improve the performance of VASP for DFT.       |
|     The default, NCORE=1 might be grossly inefficient on modern             |
|     multi-core architectures or massively parallel machines. Do your        |
|     Unfortunately you need to use the default for GW and RPA                |
|     calculations (for HF NCORE is supported but not extensively tested      |
|     yet).                                                                   |

 POTCAR:    PAW_PBE C 08Apr2002
   VRHFIN =C: s2p2

   TITEL  = PAW_PBE C 08Apr2002
   POMASS =   12.011; ZVAL   =    4.000    mass and valenz
   ENMAX  =  400.000; ENMIN  =  300.000 eV

  PAW_PBE C 08Apr2002                   :

 POSCAR: Graphene
  positions in direct lattice
 exchange correlation table for  LEXCH =        8
   RHO(1)=    0.500       N(1)  =     2000
   RHO(2)=  100.500       N(2)  =     4000

 ion  position               nearest neighbor table
   1  0.000  0.000  0.500-   2 1.99   2 1.99   2 1.99
   2  0.667  0.333  0.500-   1 1.99   1 1.99   1 1.99

IMPORTANT INFORMATION: All symmetrisations will be switched off!
NOSYMM: (Re-)initialisation of all symmetry stuff for point group C_1.

                                     Primitive cell

  volume of cell :     155.0068

  direct lattice vectors                    reciprocal lattice vectors
     3.454325211  0.000000000  0.000000000     0.289492141  0.167133536  0.000000000
    -1.727121886  2.991549304  0.000000000     0.000000000  0.334274952  0.000000000
     0.000000000  0.000000000 15.000000000     0.000000000  0.000000000  0.066666667

  length of vectors
     3.454325211  3.454318637 15.000000000     0.334274316  0.334274952  0.066666667

  position of ions in fractional coordinates (direct lattice)
     0.000000000  0.000000000  0.500000000
     0.666668846  0.333334637  0.500000000

  ion indices of the primitive-cell ions
   primitive index   ion index
                 1           1
                 2           2

 KPOINTS: K-Spacing Value to Generate K-Mesh: 0.03

Automatic generation of k-mesh.
 Grid dimensions read from file:
 generate k-points for:   12   12    1

 Generating k-lattice:

  Cartesian coordinates                     Fractional coordinates (reciprocal lattice)
     0.024124345  0.013927795  0.000000000     0.083333333  0.000000000  0.000000000
     0.000000000  0.027856246  0.000000000     0.000000000  0.083333333  0.000000000
     0.000000000  0.000000000  0.066666667     0.000000000  0.000000000  1.000000000

  Length of vectors
     0.027856193  0.027856246  0.066666667

  Shift w.r.t. Gamma in fractional coordinates (k-lattice)
     0.000000000  0.000000000  0.000000000

 Subroutine IBZKPT returns following result:

 Found     74 irreducible k-points:

 Following reciprocal coordinates:
            Coordinates               Weight
  0.000000  0.000000  0.000000      1.000000
  0.083333 -0.000000  0.000000      2.000000
  0.166667 -0.000000  0.000000      2.000000
  0.250000 -0.000000  0.000000      2.000000
  0.333333 -0.000000  0.000000      2.000000
  0.416667 -0.000000  0.000000      2.000000
  0.500000 -0.000000  0.000000      1.000000
  0.000000  0.083333  0.000000      2.000000
  0.083333  0.083333  0.000000      2.000000
  0.166667  0.083333  0.000000      2.000000
  0.250000  0.083333  0.000000      2.000000
  0.333333  0.083333  0.000000      2.000000
  0.416667  0.083333  0.000000      2.000000
  0.500000  0.083333  0.000000      2.000000
 -0.416667  0.083333  0.000000      2.000000
 -0.333333  0.083333  0.000000      2.000000
 -0.250000  0.083333  0.000000      2.000000
 -0.166667  0.083333  0.000000      2.000000
 -0.083333  0.083333  0.000000      2.000000
  0.000000  0.166667  0.000000      2.000000
  0.083333  0.166667  0.000000      2.000000
  0.166667  0.166667  0.000000      2.000000
  0.250000  0.166667  0.000000      2.000000
  0.333333  0.166667  0.000000      2.000000
  0.416667  0.166667  0.000000      2.000000
  0.500000  0.166667  0.000000      2.000000
 -0.416667  0.166667  0.000000      2.000000
 -0.333333  0.166667  0.000000      2.000000
 -0.250000  0.166667  0.000000      2.000000
 -0.166667  0.166667  0.000000      2.000000
 -0.083333  0.166667  0.000000      2.000000
  0.000000  0.250000  0.000000      2.000000
  0.083333  0.250000  0.000000      2.000000
  0.166667  0.250000  0.000000      2.000000
  0.250000  0.250000  0.000000      2.000000
  0.333333  0.250000  0.000000      2.000000
  0.416667  0.250000  0.000000      2.000000
  0.500000  0.250000  0.000000      2.000000
 -0.416667  0.250000  0.000000      2.000000
 -0.333333  0.250000  0.000000      2.000000
 -0.250000  0.250000  0.000000      2.000000
 -0.166667  0.250000  0.000000      2.000000
 -0.083333  0.250000  0.000000      2.000000
  0.000000  0.333333  0.000000      2.000000
  0.083333  0.333333  0.000000      2.000000
  0.166667  0.333333  0.000000      2.000000
  0.250000  0.333333  0.000000      2.000000
  0.333333  0.333333  0.000000      2.000000
  0.416667  0.333333  0.000000      2.000000
  0.500000  0.333333  0.000000      2.000000
 -0.416667  0.333333  0.000000      2.000000
 -0.333333  0.333333  0.000000      2.000000
 -0.250000  0.333333  0.000000      2.000000
 -0.166667  0.333333  0.000000      2.000000
 -0.083333  0.333333  0.000000      2.000000
  0.000000  0.416667  0.000000      2.000000
  0.083333  0.416667  0.000000      2.000000
  0.166667  0.416667  0.000000      2.000000
  0.250000  0.416667  0.000000      2.000000
  0.333333  0.416667  0.000000      2.000000
  0.416667  0.416667  0.000000      2.000000
  0.500000  0.416667  0.000000      2.000000
 -0.416667  0.416667  0.000000      2.000000
 -0.333333  0.416667  0.000000      2.000000
 -0.250000  0.416667  0.000000      2.000000
 -0.166667  0.416667  0.000000      2.000000
 -0.083333  0.416667  0.000000      2.000000
  0.000000  0.500000  0.000000      1.000000
  0.083333  0.500000  0.000000      2.000000
  0.166667  0.500000  0.000000      2.000000
  0.250000  0.500000  0.000000      2.000000
  0.333333  0.500000  0.000000      2.000000
  0.416667  0.500000  0.000000      2.000000
  0.500000  0.500000  0.000000      1.000000

 Following cartesian coordinates:
            Coordinates               Weight
  0.000000  0.000000  0.000000      1.000000
  0.024124  0.013928  0.000000      2.000000
  0.048249  0.027856  0.000000      2.000000
  0.072373  0.041783  0.000000      2.000000
  0.096497  0.055711  0.000000      2.000000
  0.120622  0.069639  0.000000      2.000000
  0.144746  0.083567  0.000000      1.000000
  0.000000  0.027856  0.000000      2.000000
  0.024124  0.041784  0.000000      2.000000
  0.048249  0.055712  0.000000      2.000000
  0.072373  0.069640  0.000000      2.000000
  0.096497  0.083567  0.000000      2.000000
  0.120622  0.097495  0.000000      2.000000
  0.144746  0.111423  0.000000      2.000000
 -0.120622 -0.041783  0.000000      2.000000
 -0.096497 -0.027855  0.000000      2.000000
 -0.072373 -0.013927  0.000000      2.000000
 -0.048249  0.000001  0.000000      2.000000
 -0.024124  0.013928  0.000000      2.000000
  0.000000  0.055712  0.000000      2.000000
  0.024124  0.069640  0.000000      2.000000
  0.048249  0.083568  0.000000      2.000000
  0.072373  0.097496  0.000000      2.000000
  0.096497  0.111424  0.000000      2.000000
  0.120622  0.125351  0.000000      2.000000
  0.144746  0.139279  0.000000      2.000000
 -0.120622 -0.013926  0.000000      2.000000
 -0.096497  0.000001  0.000000      2.000000
 -0.072373  0.013929  0.000000      2.000000
 -0.048249  0.027857  0.000000      2.000000
 -0.024124  0.041785  0.000000      2.000000
  0.000000  0.083569  0.000000      2.000000
  0.024124  0.097497  0.000000      2.000000
  0.048249  0.111424  0.000000      2.000000
  0.072373  0.125352  0.000000      2.000000
  0.096497  0.139280  0.000000      2.000000
  0.120622  0.153208  0.000000      2.000000
  0.144746  0.167136  0.000000      2.000000
 -0.120622  0.013930  0.000000      2.000000
 -0.096497  0.027858  0.000000      2.000000
 -0.072373  0.041785  0.000000      2.000000
 -0.048249  0.055713  0.000000      2.000000
 -0.024124  0.069641  0.000000      2.000000
  0.000000  0.111425  0.000000      2.000000
  0.024124  0.125353  0.000000      2.000000
  0.048249  0.139281  0.000000      2.000000
  0.072373  0.153208  0.000000      2.000000
  0.096497  0.167136  0.000000      2.000000
  0.120622  0.181064  0.000000      2.000000
  0.144746  0.194992  0.000000      2.000000
 -0.120622  0.041786  0.000000      2.000000
 -0.096497  0.055714  0.000000      2.000000
 -0.072373  0.069642  0.000000      2.000000
 -0.048249  0.083569  0.000000      2.000000
 -0.024124  0.097497  0.000000      2.000000
  0.000000  0.139281  0.000000      2.000000
  0.024124  0.153209  0.000000      2.000000
  0.048249  0.167137  0.000000      2.000000
  0.072373  0.181065  0.000000      2.000000
  0.096497  0.194992  0.000000      2.000000
  0.120622  0.208920  0.000000      2.000000
  0.144746  0.222848  0.000000      2.000000
 -0.120622  0.069642  0.000000      2.000000
 -0.096497  0.083570  0.000000      2.000000
 -0.072373  0.097498  0.000000      2.000000
 -0.048249  0.111426  0.000000      2.000000
 -0.024124  0.125353  0.000000      2.000000
  0.000000  0.167137  0.000000      1.000000
  0.024124  0.181065  0.000000      2.000000
  0.048249  0.194993  0.000000      2.000000
[...]
   0.04824869  0.19499307  0.00000000       0.014
   0.07237304  0.20892086  0.00000000       0.014
   0.09649738  0.22284865  0.00000000       0.014
   0.12062173  0.23677645  0.00000000       0.014
   0.14474607  0.25070424  0.00000000       0.007

 k-points in reciprocal lattice and weights: K-Spacing Value to Generate K-Mesh: 0.03
   0.00000000  0.00000000  0.00000000       0.007
   0.08333333 -0.00000000  0.00000000       0.014
   0.16666667 -0.00000000  0.00000000       0.014
   0.25000000 -0.00000000  0.00000000       0.014
   0.33333333 -0.00000000  0.00000000       0.014
   0.41666667 -0.00000000  0.00000000       0.014
   0.50000000 -0.00000000  0.00000000       0.007
   0.00000000  0.08333333  0.00000000       0.014
   0.08333333  0.08333333  0.00000000       0.014
   0.16666667  0.08333333  0.00000000       0.014
   0.25000000  0.08333333  0.00000000       0.014
   0.33333333  0.08333333  0.00000000       0.014
   0.41666667  0.08333333  0.00000000       0.014
   0.50000000  0.08333333  0.00000000       0.014
  -0.41666667  0.08333333  0.00000000       0.014
  -0.33333333  0.08333333  0.00000000       0.014
  -0.25000000  0.08333333  0.00000000       0.014
  -0.16666667  0.08333333  0.00000000       0.014
  -0.08333333  0.08333333  0.00000000       0.014
   0.00000000  0.16666667  0.00000000       0.014
   0.08333333  0.16666667  0.00000000       0.014
   0.16666667  0.16666667  0.00000000       0.014
   0.25000000  0.16666667  0.00000000       0.014
   0.33333333  0.16666667  0.00000000       0.014
   0.41666667  0.16666667  0.00000000       0.014
   0.50000000  0.16666667  0.00000000       0.014
  -0.41666667  0.16666667  0.00000000       0.014
  -0.33333333  0.16666667  0.00000000       0.014
  -0.25000000  0.16666667  0.00000000       0.014
  -0.16666667  0.16666667  0.00000000       0.014
  -0.08333333  0.16666667  0.00000000       0.014
   0.00000000  0.25000000  0.00000000       0.014
   0.08333333  0.25000000  0.00000000       0.014
   0.16666667  0.25000000  0.00000000       0.014
   0.25000000  0.25000000  0.00000000       0.014
   0.33333333  0.25000000  0.00000000       0.014
   0.41666667  0.25000000  0.00000000       0.014
   0.50000000  0.25000000  0.00000000       0.014
  -0.41666667  0.25000000  0.00000000       0.014
  -0.33333333  0.25000000  0.00000000       0.014
  -0.25000000  0.25000000  0.00000000       0.014
  -0.16666667  0.25000000  0.00000000       0.014
  -0.08333333  0.25000000  0.00000000       0.014
   0.00000000  0.33333333  0.00000000       0.014
   0.08333333  0.33333333  0.00000000       0.014
   0.16666667  0.33333333  0.00000000       0.014
   0.25000000  0.33333333  0.00000000       0.014
   0.33333333  0.33333333  0.00000000       0.014
   0.41666667  0.33333333  0.00000000       0.014
   0.50000000  0.33333333  0.00000000       0.014
  -0.41666667  0.33333333  0.00000000       0.014
  -0.33333333  0.33333333  0.00000000       0.014
  -0.25000000  0.33333333  0.00000000       0.014
  -0.16666667  0.33333333  0.00000000       0.014
  -0.08333333  0.33333333  0.00000000       0.014
   0.00000000  0.41666667  0.00000000       0.014
   0.08333333  0.41666667  0.00000000       0.014
   0.16666667  0.41666667  0.00000000       0.014
   0.25000000  0.41666667  0.00000000       0.014
   0.33333333  0.41666667  0.00000000       0.014
   0.41666667  0.41666667  0.00000000       0.014
   0.50000000  0.41666667  0.00000000       0.014
  -0.41666667  0.41666667  0.00000000       0.014
  -0.33333333  0.41666667  0.00000000       0.014
  -0.25000000  0.41666667  0.00000000       0.014
  -0.16666667  0.41666667  0.00000000       0.014
  -0.08333333  0.41666667  0.00000000       0.014
   0.00000000  0.50000000  0.00000000       0.007
   0.08333333  0.50000000  0.00000000       0.014
   0.16666667  0.50000000  0.00000000       0.014
   0.25000000  0.50000000  0.00000000       0.014
   0.33333333  0.50000000  0.00000000       0.014
   0.41666667  0.50000000  0.00000000       0.014
   0.50000000  0.50000000  0.00000000       0.007

 position of ions in fractional coordinates (direct lattice)
   0.00000000  0.00000000  0.50000000
   0.66666885  0.33333464  0.50000000

 position of ions in cartesian coordinates  (Angst):
   0.00000000  0.00000000  7.50000000
   1.72718145  0.99718700  7.50000000

 k-point   1 :   0.0000 0.0000 0.0000  plane waves:    4159
 k-point   2 :   0.0833-0.0000 0.0000  plane waves:    4185
 k-point   3 :   0.1667-0.0000 0.0000  plane waves:    4209
 k-point   4 :   0.2500-0.0000 0.0000  plane waves:    4195
 k-point   5 :   0.3333-0.0000 0.0000  plane waves:    4179
 k-point   6 :   0.4167-0.0000 0.0000  plane waves:    4163
 k-point   7 :   0.5000-0.0000 0.0000  plane waves:    4150
 k-point   8 :   0.0000 0.0833 0.0000  plane waves:    4185
 k-point   9 :   0.0833 0.0833 0.0000  plane waves:    4187
 k-point  10 :   0.1667 0.0833 0.0000  plane waves:    4204
 k-point  11 :   0.2500 0.0833 0.0000  plane waves:    4176
 k-point  12 :   0.3333 0.0833 0.0000  plane waves:    4182
 k-point  13 :   0.4167 0.0833 0.0000  plane waves:    4162
 k-point  14 :   0.5000 0.0833 0.0000  plane waves:    4162
 k-point  15 :  -0.4167 0.0833 0.0000  plane waves:    4182
 k-point  16 :  -0.3333 0.0833 0.0000  plane waves:    4178
 k-point  17 :  -0.2500 0.0833 0.0000  plane waves:    4204
 k-point  18 :  -0.1667 0.0833 0.0000  plane waves:    4187
 k-point  19 :  -0.0833 0.0833 0.0000  plane waves:    4185
 k-point  20 :   0.0000 0.1667 0.0000  plane waves:    4209
 k-point  21 :   0.0833 0.1667 0.0000  plane waves:    4204
 k-point  22 :   0.1667 0.1667 0.0000  plane waves:    4179
 k-point  23 :   0.2500 0.1667 0.0000  plane waves:    4167
 k-point  24 :   0.3333 0.1667 0.0000  plane waves:    4158
 k-point  25 :   0.4167 0.1667 0.0000  plane waves:    4152
 k-point  26 :   0.5000 0.1667 0.0000  plane waves:    4158
 k-point  27 :  -0.4167 0.1667 0.0000  plane waves:    4167
 k-point  28 :  -0.3333 0.1667 0.0000  plane waves:    4179
 k-point  29 :  -0.2500 0.1667 0.0000  plane waves:    4204
 k-point  30 :  -0.1667 0.1667 0.0000  plane waves:    4209
 k-point  31 :  -0.0833 0.1667 0.0000  plane waves:    4187
 k-point  32 :   0.0000 0.2500 0.0000  plane waves:    4195
 k-point  33 :   0.0833 0.2500 0.0000  plane waves:    4176
 k-point  34 :   0.1667 0.2500 0.0000  plane waves:    4167
 k-point  35 :   0.2500 0.2500 0.0000  plane waves:    4176
 k-point  36 :   0.3333 0.2500 0.0000  plane waves:    4143
 k-point  37 :   0.4167 0.2500 0.0000  plane waves:    4143
 k-point  38 :   0.5000 0.2500 0.0000  plane waves:    4176
 k-point  39 :  -0.4167 0.2500 0.0000  plane waves:    4167
 k-point  40 :  -0.3333 0.2500 0.0000  plane waves:    4176
 k-point  41 :  -0.2500 0.2500 0.0000  plane waves:    4195
 k-point  42 :  -0.1667 0.2500 0.0000  plane waves:    4204
 k-point  43 :  -0.0833 0.2500 0.0000  plane waves:    4204
 k-point  44 :   0.0000 0.3333 0.0000  plane waves:    4179
 k-point  45 :   0.0833 0.3333 0.0000  plane waves:    4182
 k-point  46 :   0.1667 0.3333 0.0000  plane waves:    4158
 k-point  47 :   0.2500 0.3333 0.0000  plane waves:    4145
 k-point  48 :   0.3333 0.3333 0.0000  plane waves:    4134
 k-point  49 :   0.4167 0.3333 0.0000  plane waves:    4145
 k-point  50 :   0.5000 0.3333 0.0000  plane waves:    4158
 k-point  51 :  -0.4167 0.3333 0.0000  plane waves:    4182
 k-point  52 :  -0.3333 0.3333 0.0000  plane waves:    4179
 k-point  53 :  -0.2500 0.3333 0.0000  plane waves:    4176
 k-point  54 :  -0.1667 0.3333 0.0000  plane waves:    4179
 k-point  55 :  -0.0833 0.3333 0.0000  plane waves:    4178
 k-point  56 :   0.0000 0.4167 0.0000  plane waves:    4163
 k-point  57 :   0.0833 0.4167 0.0000  plane waves:    4162
 k-point  58 :   0.1667 0.4167 0.0000  plane waves:    4152
 k-point  59 :   0.2500 0.4167 0.0000  plane waves:    4143
 k-point  60 :   0.3333 0.4167 0.0000  plane waves:    4145
 k-point  61 :   0.4167 0.4167 0.0000  plane waves:    4152
 k-point  62 :   0.5000 0.4167 0.0000  plane waves:    4162
 k-point  63 :  -0.4167 0.4167 0.0000  plane waves:    4165
 k-point  64 :  -0.3333 0.4167 0.0000  plane waves:    4182
 k-point  65 :  -0.2500 0.4167 0.0000  plane waves:    4167
 k-point  66 :  -0.1667 0.4167 0.0000  plane waves:    4167
 k-point  67 :  -0.0833 0.4167 0.0000  plane waves:    4182
 k-point  68 :   0.0000 0.5000 0.0000  plane waves:    4150
 k-point  69 :   0.0833 0.5000 0.0000  plane waves:    4162
 k-point  70 :   0.1667 0.5000 0.0000  plane waves:    4158
 k-point  71 :   0.2500 0.5000 0.0000  plane waves:    4176
 k-point  72 :   0.3333 0.5000 0.0000  plane waves:    4158
 k-point  73 :   0.4167 0.5000 0.0000  plane waves:    4162
 k-point  74 :   0.5000 0.5000 0.0000  plane waves:    4150

 maximum and minimum number of plane-waves per node :       312      282

 maximum number of plane-waves:      4209
 maximum index in each direction:
   IXMAX=    6   IYMAX=    6   IZMAX=   27
   IXMIN=   -6   IYMIN=   -6   IZMIN=  -27

 parallel 3D FFT for wavefunctions:
    minimum data exchange during FFTs selected (reduces bandwidth)
 parallel 3D FFT for charge:
    minimum data exchange during FFTs selected (reduces bandwidth)

 Broyden mixing: mesh for mixing (old mesh)
   NGX = 13   NGY = 13   NGZ = 55
  (NGX  = 56   NGY  = 56   NGZ  =224)
  gives a total of   9295 points

 initial charge density was supplied:
 charge density of overlapping atoms calculated
 number of electron       8.0000000 magnetization
 keeping initial charge density in first step

 Maximum index for augmentation-charges         2028 (set IRDMAX)

 First call to EWALD:  gamma=   0.330
 Maximum number of real-space cells 5x 5x 1
 Maximum number of reciprocal cells 2x 2x 7

--------------------------------------- Iteration      1(   1)  ---------------------------------------

 eigenvalue-minimisations  :  1184
 total energy-change (2. order) : 0.4172901E+02  (-0.2629532E+03)
 number of electron       8.0000000 magnetization
 augmentation part        8.0000000 magnetization

 Free energy of the ion-electron system (eV)
  alpha Z        PSCENC =         2.11982276
  Ewald energy   TEWEN  =       316.54406984
  -Hartree energ DENC   =      -559.93111643
  -exchange      EXHF   =         0.00000000
  -V(xc)+E(xc)   XCENC  =        22.94572381
  PAW double counting   =       217.04409276     -218.18290438
  entropy T*S    EENTRO =        -0.00179632
  eigenvalues    EBANDS =       -33.10666519
  atomic energy  EATOM  =       294.29778662
  Solvation  Ediel_sol  =         0.00000000
  free energy    TOTEN  =        41.72901349 eV

  energy without entropy =       41.73080980  energy(sigma->0) =       41.72991164

[...]

 eigenvalue-minimisations  :  2184
 total energy-change (2. order) :-0.4885299E+02  (-0.4640001E+02)
 number of electron       8.0000000 magnetization
 augmentation part        8.0000000 magnetization

[...]

 Broyden mixing:
  rms(total) = 0.18481E+00    rms(broyden)= 0.18473E+00
  rms(prec ) = 0.19913E+00
  weight for this iteration     100.00

[...]

 eigenvalues of (default mixing * dielectric matrix)
  average eigenvalue GAMMA=   2.4542
  2.4542

[...]

 Broyden mixing:
  rms(total) = 0.15438E-05    rms(broyden)= 0.15425E-05
  rms(prec ) = 0.17754E-05
  weight for this iteration     100.00

 eigenvalues of (default mixing * dielectric matrix)
  average eigenvalue GAMMA=   2.7498
  9.7112  6.0237  3.2642  3.0468  2.7358  2.5373  2.2121  1.7412  0.4929  1.0006
  1.0006  1.0029  0.9784

[...]

--------------------------------------- Iteration      1(  19)  ---------------------------------------

 eigenvalue-minimisations  :   768
 total energy-change (2. order) :-0.3146738E-08  (-0.9356396E-11)
 number of electron       8.0000000 magnetization
 augmentation part        0.0271914 magnetization

 Free energy of the ion-electron system (eV)
  alpha Z        PSCENC =         2.11982276
  Ewald energy   TEWEN  =       316.54406984
  -Hartree energ DENC   =      -560.47340806
  -exchange      EXHF   =         0.00000000
  -V(xc)+E(xc)   XCENC  =        22.95755131
  PAW double counting   =       253.04488046     -254.14026305
  entropy T*S    EENTRO =        -0.00303234
  eigenvalues    EBANDS =       -84.67705682
  atomic energy  EATOM  =       294.29778662
  Solvation  Ediel_sol  =         0.00000000
  free energy    TOTEN  =       -10.32964928 eV

  energy without entropy =      -10.32661694  energy(sigma->0) =      -10.32813311

 average (electrostatic) potential at core
  the test charge radii are     0.6991
  (the norm of the test charge is              1.0000)
       1 -61.6364       2 -61.6364

 E-fermi :  -5.0500     XC(G=0):  -2.3977     alpha+bet : -1.2931

 Fermi energy:        -5.0500010482

 k-point     1 :       0.0000    0.0000    0.0000
  band No.  band energies     occupation
      1     -17.4834      2.00000
      2      -7.3436      2.00000
      3      -7.1512      2.00000
      4      -6.9060      2.00000
      5      -6.9059      2.00000
      6      -1.0901      0.00000
      7      -1.0046      0.00000
      8      -1.0044      0.00000

[...]

 k-point    74 :       0.5000    0.5000    0.0000
  band No.  band energies     occupation
      1     -15.3815      2.00000
      2     -13.4218      2.00000
      3      -8.1430      2.00000
      4      -5.4390      2.00000
      5      -4.1001      0.00000
      6      -3.6607      0.00000
      7       1.3823      0.00000
      8       2.1478      0.00000

 soft charge-density along one line, spin component           1
         0         1         2         3         4         5         6         7         8         9
 total charge-density along one line

------------------------ aborting loop because EDIFF is reached ----------------------------------------

         DFTD3 V3.0 Rev 1
 IVDW         = 12
 DF pbe
 parameters
 VDW_S6       =    1.0000
 VDW_S8       =    0.7875
 VDW_A1       =    0.4289
 VDW_A2       =    4.4407
 k1-k3        =   16.0000    1.3333   -4.0000
 VDW_RADIUS   =   50.2022 A
 VDW_CNRADIUS =   21.1671 A
 Edisp (eV)   -0.12186

 E6    (eV) :    -0.0837
 E8    (eV) :    -0.0382
 % E8        : 31.34

  FORCE on cell =-STRESS in cart. coord.  units (eV):
  Direction    XX          YY          ZZ          XY          YZ          ZX
  Alpha Z     2.11982     2.11982     2.11982
  Ewald     508.48826   508.48862  -700.43289    -0.00124     0.00000    -0.00000
  Hartree   537.94808   537.94816  -515.42285    -0.00042     0.00000     0.00000
  E(xc)     -25.35115   -25.35114   -26.18941    -0.00000     0.00000     0.00000
  Local   -1134.49980 -1134.50017  1121.45462     0.00185    -0.00000    -0.00000
  n-local     5.64780     5.64784     3.66126     0.00009     0.00000     0.00000
  augment    -0.09807    -0.09807    -0.05725    -0.00000    -0.00000     0.00000
  Kinetic    91.92547    91.92521   114.85646    -0.00005    -0.00000    -0.00000
  Fock        0.00000     0.00000     0.00000     0.00000     0.00000     0.00000
  vdW         0.41331     0.41331    -0.00106     0.00000     0.00000    -0.00000
  Total     -13.40627   -13.40641    -0.01129     0.00021    -0.00000    -0.00000
  in kB    -138.56959  -138.57099    -0.11671     0.00218    -0.00000    -0.00000

 VOLUME and BASIS-vectors are now :
  energy-cutoff  :      520.00
  volume of cell :      155.01
      direct lattice vectors                 reciprocal lattice vectors
     3.454325211  0.000000000  0.000000000     0.289492141  0.167133536  0.000000000
    -1.727121886  2.991549304  0.000000000     0.000000000  0.334274952  0.000000000
     0.000000000  0.000000000 15.000000000     0.000000000  0.000000000  0.066666667

  length of vectors
     3.454325211  3.454318637 15.000000000     0.334274316  0.334274952  0.066666667

 FORCES acting on ions
    electron-ion (+dipol)            ewald-force                    non-local-force                 convergence-correction
   -.177E-02 0.392E-03 0.368E-06   0.186E-02 -.343E-03 0.301E-19   -.479E-03 0.614E-04 -.149E-06   0.424E-06 -.725E-06 -.200E-06
   0.177E-02 -.392E-03 -.276E-06   -.186E-02 0.343E-03 -.294E-19   0.479E-03 -.614E-04 0.137E-06   -.538E-06 0.669E-06 0.108E-06
   0.173E-06 0.836E-07 0.927E-07   -.130E-14 -.783E-15 0.713E-21   -.911E-07 -.208E-08 -.114E-07   -.114E-06 -.562E-07 -.924E-07

 POSITION                                       TOTAL-FORCE (eV/Angst)
      0.00000      0.00000      7.50000        -0.000380      0.000108      0.000000
      1.72718      0.99719      7.50000         0.000380     -0.000108     -0.000000
    total drift:                               -0.000000      0.000000     -0.000000

  FREE ENERGIE OF THE ION-ELECTRON SYSTEM (eV)
  free  energy   TOTEN  =       -10.45150962 eV

  energy  without entropy=      -10.44847729  energy(sigma->0) =      -10.44999345