 vasp.6.3.1 04May22 (build Aug 04 2022 13:02:54) complex

 executed on             LinuxIFC date 2024.11.24  12:55:31

 INCAR:
   ISTART = 1            (Read existing wavefunction
   ISPIN = 1            (Non-Spin polarised DFT)
   LREAL = .FALSE.       (Projection operators: automatic)
   ENCUT = 520        (Cut-off energy for plane wave basis set, in eV)
   PREC = A       (Precision level)
   LWAVE = .FALSE.        (Write WAVECAR or not)
   LCHARG = .FALSE.        (Write CHGCAR or not)
   ADDGRID = .TRUE.        (Increase grid
   KSPACING = 0.2000
   KGAMMA = .FALSE.
   IVDW = 12
   ISMEAR = 0            (Gaussian smearing
   SIGMA = 0.05         (Smearing value in eV
   NELM = 200           (Max electronic SCF steps)
   NELMIN = 6            (Min electronic SCF steps)
   EDIFF = 1E-08        (SCF energy convergence
   NSW = 0          (Max ionic steps)
   IBRION = -1            (Algorithm: 0-MD
   ISIF = 3           (Stress/relaxation: 2-Ions, 3-Shape/Ions/V, 4-Shape/Ions)
   EDIFFG = -1E-04        (Ionic convergence
   NCORE = 14

 POTCAR:    PAW_PBE C 08Apr2002
|           W    W    AA    RRRRR   N    N  II  N    N   GGGG   !!!           |
|           W    W   A  A   R    R  NN   N  II  NN   N  G    G  !!!           |
|           W    W  A    A  R    R  N N  N  II  N N  N  G       !!!           |
|           W WW W  AAAAAA  RRRRR   N  N N  II  N  N N  G  GGG   !            |
|           WW  WW  A    A  R   R   N   NN  II  N   NN  G    G                |
|           W    W  A    A  R    R  N    N  II  N    N   GGGG   !!!           |
|     For optimal performance we recommend to set                             |
|       NCORE = 2 up to number-of-cores-per-socket                            |
|     This setting can greatly improve the performance of VASP for DFT.       |
|     The default, NCORE=1 might be grossly inefficient on modern             |
|     multi-core architectures or massively parallel machines. Do your        |
|     Unfortunately you need to use the default for GW and RPA                |
|     calculations (for HF NCORE is supported but not extensively tested      |
|     yet).                                                                   |

 POTCAR:    PAW_PBE C 08Apr2002
   VRHFIN =C: s2p2

   TITEL  = PAW_PBE C 08Apr2002
   POMASS =   12.011; ZVAL   =    4.000    mass and valenz
   ENMAX  =  400.000; ENMIN  =  300.000 eV

  PAW_PBE C 08Apr2002                   :

 POSCAR: AA-stacked Graphene
  positions in direct lattice
  velocities in cartesian coordinates
 exchange correlation table for  LEXCH =        8
   RHO(1)=    0.500       N(1)  =     2000
   RHO(2)=  100.500       N(2)  =     4000

 ion  position               nearest neighbor table
   1  1.000  1.000  0.000-   2 1.42   2 1.42   2 1.42
   2  0.666  0.333  0.000-   1 1.42   1 1.42   1 1.42
   3  1.000  1.000  0.500-   4 1.42   4 1.42   4 1.42
   4  0.666  0.333  0.500-   3 1.42   3 1.42   3 1.42

  LATTYP: Found a hexagonal cell.
 ALAT       =     2.4663032719
 C/A-ratio  =     2.5138838644

  Lattice vectors:

 A1 = (   2.4663032553,  -0.0002866376,   0.0000000000)
 A2 = (  -1.2328986900,   2.1360225972,   0.0000000000)
 A3 = (   0.0000000000,   0.0000000000,   6.2000000000)

Analysis of symmetry for initial positions (statically):
 Subroutine PRICEL returns following result:

[...]

   2 primitive cells build up your supercell.

 Routine SETGRP: Setting up the symmetry group for a
 hexagonal supercell.

 Subroutine GETGRP returns: Found 24 space group operations
 (whereof  2 operations were pure point group operations)
 out of a pool of 24 trial point group operations.

The static configuration has the point symmetry C_1h.
 The point group associated with its full space group is D_6h.

Analysis of symmetry for dynamics (positions and initial velocities):
 Subroutine PRICEL returns following result:

  LATTYP: Found a hexagonal cell.
 ALAT       =     2.4663032719
 C/A-ratio  =     1.2569419322

  Lattice vectors:

 A1 = (   2.4663032553,  -0.0002866376,   0.0000000000)
 A2 = (  -1.2328986900,   2.1360225972,   0.0000000000)
 A3 = (   0.0000000000,   0.0000000000,   3.1000000000)

   2 primitive cells build up your supercell.

 Routine SETGRP: Setting up the symmetry group for a
 hexagonal supercell.

 Subroutine GETGRP returns: Found 24 space group operations
 (whereof  2 operations were pure point group operations)
 out of a pool of 24 trial point group operations.

The dynamic configuration has the point symmetry C_1h.
 The point group associated with its full space group is D_6h.

 Subroutine INISYM returns: Found 24 space group operations
 (whereof  2 operations are pure point group operations),
 and found     2 'primitive' translations

                                     Primitive cell

  volume of cell :      16.3300

  direct lattice vectors                    reciprocal lattice vectors
     2.466303255 -0.000286638  0.000000000     0.405492344  0.234047608  0.000000000
    -1.232898690  2.136022597  0.000000000     0.000054414  0.468191249  0.000000000
     0.000000000  0.000000000  3.100000000     0.000000000  0.000000000  0.322580645

  length of vectors
     2.466303272  2.466299194  3.100000000     0.468190478  0.468191252  0.322580645

  position of ions in fractional coordinates (direct lattice)
     0.999825905  0.999922181  0.000000000
     0.666491690  0.333254731  0.000000000

  ion indices of the primitive-cell ions
   primitive index   ion index
                 1           1
                 2           2

 KPOINTS: K-Spacing Value to Generate K-Mesh: 0.03

Automatic generation of k-mesh.
 Grid dimensions read from file:
 generate k-points for:   18   18    5

 Generating k-lattice:

  Cartesian coordinates                     Fractional coordinates (reciprocal lattice)
     0.022527352  0.013002645  0.000000000     0.055555556  0.000000000  0.000000000
     0.000003023  0.026010625  0.000000000     0.000000000  0.055555556  0.000000000
     0.000000000  0.000000000  0.032258065     0.000000000  0.000000000  0.200000000

  Length of vectors
     0.026010582  0.026010625  0.032258065

  Shift w.r.t. Gamma in fractional coordinates (k-lattice)
     0.000000000  0.000000000  0.000000000

 Subroutine IBZKPT returns following result:

 Found    111 irreducible k-points:

 Following reciprocal coordinates:
            Coordinates               Weight
  0.000000  0.000000  0.000000      1.000000
  0.055556 -0.000000  0.000000      6.000000
  0.111111 -0.000000  0.000000      6.000000
  0.166667 -0.000000  0.000000      6.000000
  0.222222  0.000000  0.000000      6.000000
  0.277778 -0.000000  0.000000      6.000000
  0.333333 -0.000000  0.000000      6.000000
  0.388889  0.000000  0.000000      6.000000
  0.444444  0.000000  0.000000      6.000000
  0.500000 -0.000000  0.000000      3.000000
  0.055556  0.055556  0.000000      6.000000
  0.111111  0.055556  0.000000     12.000000
  0.166667  0.055556  0.000000     12.000000
  0.222222  0.055556  0.000000     12.000000
  0.277778  0.055556  0.000000     12.000000
  0.333333  0.055556  0.000000     12.000000
  0.388889  0.055556  0.000000     12.000000
  0.444444  0.055556  0.000000     12.000000
  0.111111  0.111111  0.000000      6.000000
  0.166667  0.111111  0.000000     12.000000
  0.222222  0.111111  0.000000     12.000000
  0.277778  0.111111  0.000000     12.000000
  0.333333  0.111111  0.000000     12.000000
  0.388889  0.111111  0.000000     12.000000
  0.444444  0.111111  0.000000      6.000000
  0.166667  0.166667  0.000000      6.000000
  0.222222  0.166667  0.000000     12.000000
  0.277778  0.166667  0.000000     12.000000
  0.333333  0.166667  0.000000     12.000000
  0.388889  0.166667  0.000000     12.000000
  0.222222  0.222222  0.000000      6.000000
  0.277778  0.222222  0.000000     12.000000
  0.333333  0.222222  0.000000     12.000000
  0.388889  0.222222  0.000000      6.000000
  0.277778  0.277778  0.000000      6.000000
  0.333333  0.277778  0.000000     12.000000
  0.333333  0.333333  0.000000      2.000000
  0.000000  0.000000  0.200000      2.000000
  0.055556 -0.000000  0.200000     12.000000
  0.111111 -0.000000  0.200000     12.000000
  0.166667 -0.000000  0.200000     12.000000
  0.222222  0.000000  0.200000     12.000000
  0.277778 -0.000000  0.200000     12.000000
  0.333333 -0.000000  0.200000     12.000000
  0.388889  0.000000  0.200000     12.000000
  0.444444  0.000000  0.200000     12.000000
  0.500000 -0.000000  0.200000      6.000000
  0.055556  0.055556  0.200000     12.000000
  0.111111  0.055556  0.200000     24.000000
  0.166667  0.055556  0.200000     24.000000
  0.222222  0.055556  0.200000     24.000000
  0.277778  0.055556  0.200000     24.000000
  0.333333  0.055556  0.200000     24.000000
  0.388889  0.055556  0.200000     24.000000
  0.444444  0.055556  0.200000     24.000000
  0.111111  0.111111  0.200000     12.000000
  0.166667  0.111111  0.200000     24.000000
  0.222222  0.111111  0.200000     24.000000
  0.277778  0.111111  0.200000     24.000000
  0.333333  0.111111  0.200000     24.000000
[...]
  0.333333  0.111111  0.400000     24.000000
  0.388889  0.111111  0.400000     24.000000
  0.444444  0.111111  0.400000     12.000000
  0.166667  0.166667  0.400000     12.000000
  0.222222  0.166667  0.400000     24.000000
  0.277778  0.166667  0.400000     24.000000
  0.333333  0.166667  0.400000     24.000000
  0.388889  0.166667  0.400000     24.000000
  0.222222  0.222222  0.400000     12.000000
  0.277778  0.222222  0.400000     24.000000
  0.333333  0.222222  0.400000     24.000000
  0.388889  0.222222  0.400000     12.000000
  0.277778  0.277778  0.400000     12.000000
  0.333333  0.277778  0.400000     24.000000
  0.333333  0.333333  0.400000      4.000000

 Following cartesian coordinates:
            Coordinates               Weight
  0.000000  0.000000  0.000000      1.000000
  0.022527  0.013003  0.000000      6.000000
  0.045055  0.026005  0.000000      6.000000
  0.067582  0.039008  0.000000      6.000000
  0.090109  0.052011  0.000000      6.000000
  0.112637  0.065013  0.000000      6.000000
  0.135164  0.078016  0.000000      6.000000
  0.157691  0.091019  0.000000      6.000000
  0.180219  0.104021  0.000000      6.000000
  0.202746  0.117024  0.000000      3.000000
  0.022530  0.039013  0.000000      6.000000
  0.045058  0.052016  0.000000     12.000000
  0.067585  0.065019  0.000000     12.000000
  0.090112  0.078021  0.000000     12.000000
  0.112640  0.091024  0.000000     12.000000
  0.135167  0.104026  0.000000     12.000000
  0.157694  0.117029  0.000000     12.000000
  0.180222  0.130032  0.000000     12.000000
  0.045061  0.078027  0.000000      6.000000
  0.067588  0.091029  0.000000     12.000000
  0.090115  0.104032  0.000000     12.000000
  0.112643  0.117034  0.000000     12.000000
  0.135170  0.130037  0.000000     12.000000
  0.157698  0.143040  0.000000     12.000000
  0.180225  0.156042  0.000000      6.000000
  0.067591  0.117040  0.000000      6.000000
  0.090118  0.130042  0.000000     12.000000
  0.112646  0.143045  0.000000     12.000000
  0.135173  0.156048  0.000000     12.000000
  0.157701  0.169050  0.000000     12.000000
[...]
   0.44444444  0.05555556  0.00000000       0.007
   0.11111111  0.11111111  0.00000000       0.004
   0.16666667  0.11111111  0.00000000       0.007
   0.22222222  0.11111111  0.00000000       0.007
   0.27777778  0.11111111  0.00000000       0.007
   0.33333333  0.11111111  0.00000000       0.007
   0.38888889  0.11111111  0.00000000       0.007
   0.44444444  0.11111111  0.00000000       0.004
   0.16666667  0.16666667  0.00000000       0.004
   0.22222222  0.16666667  0.00000000       0.007
   0.27777778  0.16666667  0.00000000       0.007
   0.33333333  0.16666667  0.00000000       0.007
   0.38888889  0.16666667  0.00000000       0.007
   0.22222222  0.22222222  0.00000000       0.004
   0.27777778  0.22222222  0.00000000       0.007
   0.33333333  0.22222222  0.00000000       0.007
   0.38888889  0.22222222  0.00000000       0.004
   0.27777778  0.27777778  0.00000000       0.004
   0.33333333  0.27777778  0.00000000       0.007
   0.33333333  0.33333333  0.00000000       0.001
   0.00000000  0.00000000  0.20000000       0.001
   0.05555556 -0.00000000  0.20000000       0.007
   0.11111111 -0.00000000  0.20000000       0.007
   0.16666667 -0.00000000  0.20000000       0.007
   0.22222222  0.00000000  0.20000000       0.007
   0.27777778 -0.00000000  0.20000000       0.007
   0.33333333 -0.00000000  0.20000000       0.007
   0.38888889  0.00000000  0.20000000       0.007
   0.44444444  0.00000000  0.20000000       0.007
   0.50000000 -0.00000000  0.20000000       0.004
   0.05555556  0.05555556  0.20000000       0.007
   0.11111111  0.05555556  0.20000000       0.015
   0.16666667  0.05555556  0.20000000       0.015
   0.22222222  0.05555556  0.20000000       0.015
   0.27777778  0.05555556  0.20000000       0.015
   0.33333333  0.05555556  0.20000000       0.015
   0.38888889  0.05555556  0.20000000       0.015
   0.44444444  0.05555556  0.20000000       0.015
   0.11111111  0.11111111  0.20000000       0.007
   0.16666667  0.11111111  0.20000000       0.015
   0.22222222  0.11111111  0.20000000       0.015
   0.27777778  0.11111111  0.20000000       0.015
   0.33333333  0.11111111  0.20000000       0.015
[...]
   0.33333333  0.11111111  0.40000000       0.015
   0.38888889  0.11111111  0.40000000       0.015
   0.44444444  0.11111111  0.40000000       0.007
   0.16666667  0.16666667  0.40000000       0.007
   0.22222222  0.16666667  0.40000000       0.015
   0.27777778  0.16666667  0.40000000       0.015
   0.33333333  0.16666667  0.40000000       0.015
   0.38888889  0.16666667  0.40000000       0.015
   0.22222222  0.22222222  0.40000000       0.007
   0.27777778  0.22222222  0.40000000       0.015
   0.33333333  0.22222222  0.40000000       0.015
   0.38888889  0.22222222  0.40000000       0.007
   0.27777778  0.27777778  0.40000000       0.007
   0.33333333  0.27777778  0.40000000       0.015
   0.33333333  0.33333333  0.40000000       0.002

 position of ions in fractional coordinates (direct lattice)
   0.99982591  0.99992218  0.00000000
   0.66649169  0.33325473  0.00000000
   0.99982591  0.99992218  0.50000000
   0.66649169  0.33325473  0.50000000

 position of ions in cartesian coordinates  (Angst):
   1.23307114  2.13556979  0.00000000
   1.23290130  0.71164859  0.00000000
   1.23307114  2.13556979  3.10000000
   1.23290130  0.71164859  3.10000000

 k-point   1 :   0.0000 0.0000 0.0000  plane waves:     869
 k-point   2 :   0.0556-0.0000 0.0000  plane waves:     886
 k-point   3 :   0.1111-0.0000 0.0000  plane waves:     902
 k-point   4 :   0.1667-0.0000 0.0000  plane waves:     896
 k-point   5 :   0.2222 0.0000 0.0000  plane waves:     902
 k-point   6 :   0.2778-0.0000 0.0000  plane waves:     892
 k-point   7 :   0.3333-0.0000 0.0000  plane waves:     880
 k-point   8 :   0.3889 0.0000 0.0000  plane waves:     878
 k-point   9 :   0.4444 0.0000 0.0000  plane waves:     876
 k-point  10 :   0.5000-0.0000 0.0000  plane waves:     880
 k-point  11 :   0.0556 0.0556 0.0000  plane waves:     889
 k-point  12 :   0.1111 0.0556 0.0000  plane waves:     889
 k-point  13 :   0.1667 0.0556 0.0000  plane waves:     898
 k-point  14 :   0.2222 0.0556 0.0000  plane waves:     888
 k-point  15 :   0.2778 0.0556 0.0000  plane waves:     886
 k-point  16 :   0.3333 0.0556 0.0000  plane waves:     880
 k-point  17 :   0.3889 0.0556 0.0000  plane waves:     873
 k-point  18 :   0.4444 0.0556 0.0000  plane waves:     880
 k-point  19 :   0.1111 0.1111 0.0000  plane waves:     895
 k-point  20 :   0.1667 0.1111 0.0000  plane waves:     891
 k-point  21 :   0.2222 0.1111 0.0000  plane waves:     888
 k-point  22 :   0.2778 0.1111 0.0000  plane waves:     888
 k-point  23 :   0.3333 0.1111 0.0000  plane waves:     874
 k-point  24 :   0.3889 0.1111 0.0000  plane waves:     873
 k-point  25 :   0.4444 0.1111 0.0000  plane waves:     874
 k-point  26 :   0.1667 0.1667 0.0000  plane waves:     887
 k-point  27 :   0.2222 0.1667 0.0000  plane waves:     881
 k-point  28 :   0.2778 0.1667 0.0000  plane waves:     872
 k-point  29 :   0.3333 0.1667 0.0000  plane waves:     873
 k-point  30 :   0.3889 0.1667 0.0000  plane waves:     877
 k-point  31 :   0.2222 0.2222 0.0000  plane waves:     877
 k-point  32 :   0.2778 0.2222 0.0000  plane waves:     873
 k-point  33 :   0.3333 0.2222 0.0000  plane waves:     872
 k-point  34 :   0.3889 0.2222 0.0000  plane waves:     866
 k-point  35 :   0.2778 0.2778 0.0000  plane waves:     865
 k-point  36 :   0.3333 0.2778 0.0000  plane waves:     858
 k-point  37 :   0.3333 0.3333 0.0000  plane waves:     858
 k-point  38 :   0.0000 0.0000 0.2000  plane waves:     881
 k-point  39 :   0.0556-0.0000 0.2000  plane waves:     880
 k-point  40 :   0.1111-0.0000 0.2000  plane waves:     892
 k-point  41 :   0.1667-0.0000 0.2000  plane waves:     894
 k-point  42 :   0.2222 0.0000 0.2000  plane waves:     887
 k-point  43 :   0.2778-0.0000 0.2000  plane waves:     892
 k-point  44 :   0.3333-0.0000 0.2000  plane waves:     885
 k-point  45 :   0.3889 0.0000 0.2000  plane waves:     877
 k-point  46 :   0.4444 0.0000 0.2000  plane waves:     877
 k-point  47 :   0.5000-0.0000 0.2000  plane waves:     878
 k-point  48 :   0.0556 0.0556 0.2000  plane waves:     895
 k-point  49 :   0.1111 0.0556 0.2000  plane waves:     888
 k-point  50 :   0.1667 0.0556 0.2000  plane waves:     890
 k-point  51 :   0.2222 0.0556 0.2000  plane waves:     886
 k-point  52 :   0.2778 0.0556 0.2000  plane waves:     891
 k-point  53 :   0.3333 0.0556 0.2000  plane waves:     882
 k-point  54 :   0.3889 0.0556 0.2000  plane waves:     876
 k-point  55 :   0.4444 0.0556 0.2000  plane waves:     878
 k-point  56 :   0.1111 0.1111 0.2000  plane waves:     890
 k-point  57 :   0.1667 0.1111 0.2000  plane waves:     888
 k-point  58 :   0.2222 0.1111 0.2000  plane waves:     886
 k-point  59 :   0.2778 0.1111 0.2000  plane waves:     878
 k-point  60 :   0.3333 0.1111 0.2000  plane waves:     874
[...]
 k-point  97 :   0.3333 0.1111 0.4000  plane waves:     877
 k-point  98 :   0.3889 0.1111 0.4000  plane waves:     877
 k-point  99 :   0.4444 0.1111 0.4000  plane waves:     877
 k-point 100 :   0.1667 0.1667 0.4000  plane waves:     879
 k-point 101 :   0.2222 0.1667 0.4000  plane waves:     872
 k-point 102 :   0.2778 0.1667 0.4000  plane waves:     877
 k-point 103 :   0.3333 0.1667 0.4000  plane waves:     875
 k-point 104 :   0.3889 0.1667 0.4000  plane waves:     877
 k-point 105 :   0.2222 0.2222 0.4000  plane waves:     863
 k-point 106 :   0.2778 0.2222 0.4000  plane waves:     873
 k-point 107 :   0.3333 0.2222 0.4000  plane waves:     874
 k-point 108 :   0.3889 0.2222 0.4000  plane waves:     874
 k-point 109 :   0.2778 0.2778 0.4000  plane waves:     876
 k-point 110 :   0.3333 0.2778 0.4000  plane waves:     870
 k-point 111 :   0.3333 0.3333 0.4000  plane waves:     867

 maximum and minimum number of plane-waves per node :        74       52

 maximum number of plane-waves:       902
 maximum index in each direction:
   IXMAX=    4   IYMAX=    4   IZMAX=   11
   IXMIN=   -5   IYMIN=   -4   IZMIN=  -11

 parallel 3D FFT for wavefunctions:
    minimum data exchange during FFTs selected (reduces bandwidth)
 parallel 3D FFT for charge:
    minimum data exchange during FFTs selected (reduces bandwidth)

 Broyden mixing: mesh for mixing (old mesh)
   NGX =  9   NGY =  9   NGZ = 23
  (NGX  = 36   NGY  = 36   NGZ  = 96)
  gives a total of   1863 points

 initial charge density was supplied:
 charge density of overlapping atoms calculated
 number of electron      16.0000000 magnetization
 keeping initial charge density in first step

 Maximum index for augmentation-charges         2118 (set IRDMAX)

 First call to EWALD:  gamma=   0.555
 Maximum number of real-space cells 4x 4x 2
 Maximum number of reciprocal cells 2x 2x 5

--------------------------------------- Iteration      1(   1)  ---------------------------------------

 eigenvalue-minimisations  :  2664
 total energy-change (2. order) : 0.4204168E+02  (-0.8455706E+03)
 number of electron      16.0000000 magnetization
 augmentation part       16.0000000 magnetization

 Free energy of the ion-electron system (eV)
  alpha Z        PSCENC =        40.24346019
  Ewald energy   TEWEN  =      -507.29519561
  -Hartree energ DENC   =      -119.60703266
  -exchange      EXHF   =         0.00000000
  -V(xc)+E(xc)   XCENC  =        53.16448144
  PAW double counting   =       434.08818552     -436.36580876
  entropy T*S    EENTRO =        -0.00083698
  eigenvalues    EBANDS =       -10.78114357
  atomic energy  EATOM  =       588.59557325
  Solvation  Ediel_sol  =         0.00000000
  free energy    TOTEN  =        42.04168280 eV

  energy without entropy =       42.04251979  energy(sigma->0) =       42.04210130

[...]

 eigenvalue-minimisations  :  3720
 total energy-change (2. order) :-0.7776401E+02  (-0.7167056E+02)
 number of electron      16.0000000 magnetization
 augmentation part       16.0000000 magnetization

[...]

 Broyden mixing:
  rms(total) = 0.89261E+00    rms(broyden)= 0.89250E+00
  rms(prec ) = 0.13808E+01
  weight for this iteration     100.00

[...]

 eigenvalues of (default mixing * dielectric matrix)
  average eigenvalue GAMMA=   2.1958
  2.1958

[...]

 eigenvalue-minimisations  :  3292
 total energy-change (2. order) : 0.8723737E-07  (-0.2975282E-08)
 number of electron      16.0000001 magnetization
 augmentation part        0.3851100 magnetization

[...]

 Broyden mixing:
  rms(total) = 0.58938E-05    rms(broyden)= 0.55645E-05
  rms(prec ) = 0.57283E-05
  weight for this iteration     100.00

 eigenvalues of (default mixing * dielectric matrix)
  average eigenvalue GAMMA=   1.8618
  3.1263  2.8132  2.5024  2.4391  1.9469  1.0284  0.9743  0.9743  0.9508

[...]

--------------------------------------- Iteration      1(  15)  ---------------------------------------

 eigenvalue-minimisations  :  2160
 total energy-change (2. order) :-0.5509946E-08  (-0.1321787E-10)
 number of electron      16.0000001 magnetization
 augmentation part        0.3851099 magnetization

 Free energy of the ion-electron system (eV)
  alpha Z        PSCENC =        40.24346019
  Ewald energy   TEWEN  =      -507.29519561
  -Hartree energ DENC   =      -151.95401572
  -exchange      EXHF   =         0.00000000
  -V(xc)+E(xc)   XCENC  =        55.32559812
  PAW double counting   =      1676.15009169    -1678.89091185
  entropy T*S    EENTRO =        -0.00061138
  eigenvalues    EBANDS =       -58.79752771
  atomic energy  EATOM  =       588.59557325
  Solvation  Ediel_sol  =         0.00000000
  free energy    TOTEN  =       -36.62353902 eV

  energy without entropy =      -36.62292765  energy(sigma->0) =      -36.62323333

 average (electrostatic) potential at core
  the test charge radii are     0.6991
  (the norm of the test charge is              1.0000)
       1 -49.9398       2 -49.9397       3 -49.9398       4 -49.9397

 E-fermi :   5.4611     XC(G=0): -10.8372     alpha+bet :-12.2748

 Fermi energy:         5.4610690709

 k-point     1 :       0.0000    0.0000    0.0000
  band No.  band energies     occupation
      1     -14.3318      2.00000
      2     -13.7874      2.00000
      3      -3.4925      2.00000
      4      -0.5777      2.00000
      5       2.4042      2.00000
      6       2.4043      2.00000
      7       2.4855      2.00000
      8       2.4856      2.00000
      9      10.5175      0.00000
     10      13.6796      0.00000
     11      13.6797      0.00000
     12      13.8819      0.00000

[...]

 k-point   111 :       0.3333    0.3333    0.4000
  band No.  band energies     occupation
      1      -7.1916      2.00000
      2      -7.1916      2.00000
      3      -7.0801      2.00000
      4      -7.0800      2.00000
      5      -5.1230      2.00000
      6      -5.0452      2.00000
      7       5.0811      2.00000
      8       5.0811      2.00000
      9       5.7221      0.00000
     10       5.7221      0.00000
     11      15.1514      0.00000
     12      16.3164      0.00000

 soft charge-density along one line, spin component           1
         0         1         2         3         4         5         6         7         8         9
 total charge-density along one line

------------------------ aborting loop because EDIFF is reached ----------------------------------------

         DFTD3 V3.0 Rev 1
 IVDW         = 12
 DF pbe
 parameters
 VDW_S6       =    1.0000
 VDW_S8       =    0.7875
 VDW_A1       =    0.4289
 VDW_A2       =    4.4407
 k1-k3        =   16.0000    1.3333   -4.0000
 VDW_RADIUS   =   50.2022 A
 VDW_CNRADIUS =   21.1671 A
 Edisp (eV)   -0.68495

 E6    (eV) :    -0.4890
 E8    (eV) :    -0.1960
 % E8        : 28.61

  FORCE on cell =-STRESS in cart. coord.  units (eV):
  Direction    XX          YY          ZZ          XY          YZ          ZX
  Alpha Z    40.24346    40.24346    40.24346
  Ewald      29.76021    29.75899  -566.81573     0.00023    -0.00000     0.00000
  Hartree   128.85273   128.85272  -105.75142     0.00001    -0.00000    -0.00000
  E(xc)     -59.65548   -59.65548   -61.53352     0.00000    -0.00000    -0.00000
  Local    -363.77726  -363.77653   433.98548    -0.00032     0.00000     0.00000
  n-local   -13.69938   -14.77953   -13.26518    -0.66975     0.05459     0.04270
  augment    -1.56509    -1.56507    -1.44027     0.00002    -0.00000    -0.00000
  Kinetic   236.17694   244.27014   277.41853     6.24710    -0.63385    -0.52966
  Fock        0.00000     0.00000     0.00000     0.00000     0.00000     0.00000
  vdW        -0.07598    -0.07598    -0.76393    -0.00000     0.00000     0.00000
  Total      -0.23358    -0.23358     2.07743    -0.00000    -0.00000    -0.00000
  in kB     -11.45849   -11.45847   101.91106    -0.00003    -0.00000    -0.00000

 VOLUME and BASIS-vectors are now :
  energy-cutoff  :      520.00
  volume of cell :       32.66
      direct lattice vectors                 reciprocal lattice vectors
     2.466303255 -0.000286638  0.000000000     0.405492344  0.234047608  0.000000000
    -1.232898690  2.136022597  0.000000000     0.000054414  0.468191249  0.000000000
     0.000000000  0.000000000  6.200000000     0.000000000  0.000000000  0.161290323

  length of vectors
     2.466303272  2.466299194  6.200000000     0.468190478  0.468191252  0.161290323

 FORCES acting on ions
    electron-ion (+dipol)            ewald-force                    non-local-force                 convergence-correction
   -.216E-03 -.867E-04 -.149E-10   0.270E-03 -.925E-04 -.170E-13   -.552E-16 -.672E-16 -.128E-19   0.395E-10 -.360E-11 -.948E-14
   0.445E-03 0.404E-03 -.161E-10   -.270E-03 0.925E-04 -.171E-13   -.310E-16 0.300E-16 -.165E-19   -.665E-10 -.340E-10 -.928E-14
   -.216E-03 -.867E-04 -.162E-10   0.270E-03 -.925E-04 0.171E-13   0.489E-16 -.134E-15 0.134E-19   0.396E-10 -.360E-11 0.903E-14
   0.445E-03 0.404E-03 -.145E-10   -.270E-03 0.925E-04 0.170E-13   -.819E-16 0.648E-16 -.283E-20   -.665E-10 -.340E-10 0.904E-14
   0.458E-03 0.634E-03 -.617E-10   0.555E-14 0.681E-15 0.244E-18   -.119E-15 -.106E-15 -.186E-19   -.540E-10 -.751E-10 -.685E-15

 POSITION                                       TOTAL-FORCE (eV/Angst)
      1.23307      2.13557      0.00000         0.000000     -0.000000     -0.000000
      1.23290      0.71165      0.00000        -0.000000     -0.000000      0.000000
      1.23307      2.13557      3.10000        -0.000000      0.000000      0.000000
      1.23290      0.71165      3.10000        -0.000000      0.000000      0.000000
    total drift:                                0.000458      0.000634     -0.000000

  FREE ENERGIE OF THE ION-ELECTRON SYSTEM (eV)
  free  energy   TOTEN  =       -37.30848890 eV

  energy  without entropy=      -37.30787753  energy(sigma->0) =      -37.30818321