 vasp.6.3.1 04May22 (build Aug 04 2022 13:02:54) complex

 executed on             LinuxIFC date 2024.11.27  04:10:36

 INCAR:
   ISTART = 1            (Read existing wavefunction
   ISPIN = 1            (Non-Spin polarised DFT)
   LREAL = .FALSE.       (Projection operators: automatic)
   ENCUT = 520        (Cut-off energy for plane wave basis set, in eV)
   PREC = A       (Precision level)
   LWAVE = .FALSE.        (Write WAVECAR or not)
   LCHARG = .FALSE.        (Write CHGCAR or not)
   ADDGRID = .TRUE.        (Increase grid
   KSPACING = 0.2000
   KGAMMA = .FALSE.
   IVDW = 12
   ISMEAR = 0            (Gaussian smearing
   SIGMA = 0.05         (Smearing value in eV
   NELM = 200           (Max electronic SCF steps)
   EDIFF = 1E-09        (SCF energy convergence
   NSW = 200          (Max ionic steps)
   IBRION = 2            (Algorithm: 0-MD
   ISIF = 3           (Stress/relaxation: 2-Ions, 3-Shape/Ions/V, 4-Shape/Ions)
   EDIFFG = -5E-04        (Ionic convergence
   NCORE = 14

 POTCAR:    PAW_PBE C 08Apr2002
|           W    W    AA    RRRRR   N    N  II  N    N   GGGG   !!!           |
|           W    W   A  A   R    R  NN   N  II  NN   N  G    G  !!!           |
|           W    W  A    A  R    R  N N  N  II  N N  N  G       !!!           |
|           W WW W  AAAAAA  RRRRR   N  N N  II  N  N N  G  GGG   !            |
|           WW  WW  A    A  R   R   N   NN  II  N   NN  G    G                |
|           W    W  A    A  R    R  N    N  II  N    N   GGGG   !!!           |
|     The value NCORE = 14 specified in the INCAR file was overwritten,       |
|     because it was not compatible with the 8 processes available:           |
|     NCORE = 8                                                               |
|     was used instead, please check that this makes sense for your           |
|     machine.                                                                |

 POTCAR:    PAW_PBE C 08Apr2002
   VRHFIN =C: s2p2

   TITEL  = PAW_PBE C 08Apr2002
   POMASS =   12.011; ZVAL   =    4.000    mass and valenz
   ENMAX  =  400.000; ENMIN  =  300.000 eV

  PAW_PBE C 08Apr2002                   :

 POSCAR: AA-stacked Graphene
  positions in cartesian coordinates
  velocities in cartesian coordinates
 exchange correlation table for  LEXCH =        8
   RHO(1)=    0.500       N(1)  =     2000
   RHO(2)=  100.500       N(2)  =     4000

 ion  position               nearest neighbor table
   1  0.000  0.000  0.033-   2 1.42   2 1.42   2 1.42
   2  0.666  0.333  0.033-   1 1.42   1 1.42   1 1.42

  Warning from LATTYP: Monoclinic adjustment (A1->A3, A2->A1, A3->A2)!
  LATTYP: Found a base centered orthorhombic cell.
 ALAT       =     2.4605001524
 B/A-ratio  =     1.7325200390
 C/A-ratio  =     6.0963215082

  Lattice vectors:

 A1 = (   1.2310000000,   2.1310000000,   0.0000000000)
 A2 = (  -2.4610000000,   0.0000000000,   0.0000000000)
 A3 = (   0.0000000000,   0.0000000000,  15.0000000000)

Analysis of symmetry for initial positions (statically):
 Subroutine PRICEL returns:
 Original cell was already a primitive cell.

 Routine SETGRP: Setting up the symmetry group for a
 base centered orthorhombic supercell.

 Subroutine GETGRP returns: Found  4 space group operations
 (whereof  1 operations were pure point group operations)
 out of a pool of  8 trial point group operations.

The static configuration has the point symmetry C_1 .
 The point group associated with its full space group is C_2h.

Analysis of symmetry for dynamics (positions and initial velocities):
 Subroutine PRICEL returns:
 Original cell was already a primitive cell.

[...]

The dynamic configuration has the point symmetry C_1 .
 The point group associated with its full space group is C_2h.

Analysis of constrained symmetry for selective dynamics:
 Subroutine PRICEL returns:
 Original cell was already a primitive cell.

 Routine SETGRP: Setting up the symmetry group for a
 base centered orthorhombic supercell.

 Subroutine GETGRP returns: Found  2 space group operations
 (whereof  1 operations were pure point group operations)
 out of a pool of  8 trial point group operations.

The constrained configuration has the point symmetry C_1 .
 The point group associated with its full space group is C_1h.

 Subroutine INISYM returns: Found  2 space group operations
 (whereof  1 operations are pure point group operations),
 and found     1 'primitive' translations

                                     Primitive cell

  volume of cell :      78.6659

  direct lattice vectors                    reciprocal lattice vectors
     2.461000000  0.000000000  0.000000000     0.406338887  0.234536288  0.000000000
    -1.230000000  2.131000000  0.000000000     0.000000000  0.469263257  0.000000000
     0.000000000  0.000000000 15.000000000     0.000000000  0.000000000  0.066666667

  length of vectors
     2.461000000  2.460500152 15.000000000     0.469167946  0.469263257  0.066666667

  position of ions in fractional coordinates (direct lattice)
     0.000000000  0.000000000  0.033333333
     0.666317595  0.333176912  0.033333333

  ion indices of the primitive-cell ions
   primitive index   ion index
                 1           1
                 2           2

 KPOINTS: K-Spacing Value to Generate K-Mesh: 0.03

Automatic generation of k-mesh.
 Grid dimensions read from file:
 generate k-points for:   18   18    1

 Generating k-lattice:

  Cartesian coordinates                     Fractional coordinates (reciprocal lattice)
     0.022574383  0.013029794  0.000000000     0.055555556 -0.000000000  0.000000000
     0.000000000  0.026070181  0.000000000     0.000000000  0.055555556  0.000000000
     0.000000000  0.000000000  0.066666667     0.000000000  0.000000000  1.000000000

  Length of vectors
     0.026064886  0.026070181  0.066666667

  Shift w.r.t. Gamma in fractional coordinates (k-lattice)
     0.000000000  0.000000000  0.000000000

 Subroutine IBZKPT returns following result:

 Found    164 irreducible k-points:

 Following reciprocal coordinates:
            Coordinates               Weight
  0.000000  0.000000  0.000000      1.000000
  0.055556 -0.000000  0.000000      2.000000
  0.111111 -0.000000  0.000000      2.000000
  0.166667  0.000000  0.000000      2.000000
  0.222222 -0.000000  0.000000      2.000000
  0.277778 -0.000000  0.000000      2.000000
  0.333333  0.000000  0.000000      2.000000
  0.388889  0.000000  0.000000      2.000000
  0.444444 -0.000000  0.000000      2.000000
  0.500000 -0.000000  0.000000      1.000000
  0.000000  0.055556  0.000000      2.000000
 -0.055556  0.055556  0.000000      2.000000
  0.055556  0.055556  0.000000      2.000000
 -0.111111  0.055556  0.000000      2.000000
  0.111111  0.055556  0.000000      2.000000
 -0.166667  0.055556  0.000000      2.000000
  0.166667  0.055556  0.000000      2.000000
 -0.222222  0.055556  0.000000      2.000000
  0.222222  0.055556  0.000000      2.000000
 -0.277778  0.055556  0.000000      2.000000
  0.277778  0.055556  0.000000      2.000000
 -0.333333  0.055556  0.000000      2.000000
  0.333333  0.055556  0.000000      2.000000
 -0.388889  0.055556  0.000000      2.000000
  0.388889  0.055556  0.000000      2.000000
 -0.444444  0.055556  0.000000      2.000000
  0.444444  0.055556  0.000000      2.000000
  0.500000  0.055556  0.000000      2.000000
  0.000000  0.111111  0.000000      2.000000
 -0.111111  0.111111  0.000000      2.000000
  0.055556  0.111111  0.000000      2.000000
 -0.166667  0.111111  0.000000      2.000000
  0.111111  0.111111  0.000000      2.000000
 -0.222222  0.111111  0.000000      2.000000
  0.166667  0.111111  0.000000      2.000000
 -0.277778  0.111111  0.000000      2.000000
  0.222222  0.111111  0.000000      2.000000
 -0.333333  0.111111  0.000000      2.000000
  0.277778  0.111111  0.000000      2.000000
 -0.388889  0.111111  0.000000      2.000000
  0.333333  0.111111  0.000000      2.000000
 -0.444444  0.111111  0.000000      2.000000
  0.388889  0.111111  0.000000      2.000000
  0.500000  0.111111  0.000000      2.000000
  0.444444  0.111111  0.000000      2.000000
 -0.055556  0.111111  0.000000      2.000000
  0.000000  0.166667  0.000000      2.000000
 -0.166667  0.166667  0.000000      2.000000
  0.055556  0.166667  0.000000      2.000000
 -0.222222  0.166667  0.000000      2.000000
  0.111111  0.166667  0.000000      2.000000
 -0.277778  0.166667  0.000000      2.000000
  0.166667  0.166667  0.000000      2.000000
 -0.333333  0.166667  0.000000      2.000000
  0.222222  0.166667  0.000000      2.000000
 -0.388889  0.166667  0.000000      2.000000
  0.277778  0.166667  0.000000      2.000000
 -0.444444  0.166667  0.000000      2.000000
  0.333333  0.166667  0.000000      2.000000
  0.500000  0.166667  0.000000      2.000000
[...]
 -0.333333  0.444444  0.000000      2.000000
 -0.111111  0.444444  0.000000      2.000000
 -0.277778  0.444444  0.000000      2.000000
 -0.166667  0.444444  0.000000      2.000000
 -0.222222  0.444444  0.000000      2.000000
  0.000000  0.500000  0.000000      1.000000
  0.500000  0.500000  0.000000      1.000000
  0.055556  0.500000  0.000000      2.000000
  0.444444  0.500000  0.000000      2.000000
  0.111111  0.500000  0.000000      2.000000
  0.388889  0.500000  0.000000      2.000000
  0.166667  0.500000  0.000000      2.000000
  0.333333  0.500000  0.000000      2.000000
  0.222222  0.500000  0.000000      2.000000
  0.277778  0.500000  0.000000      2.000000

 Following cartesian coordinates:
            Coordinates               Weight
  0.000000  0.000000  0.000000      1.000000
  0.022574  0.013030  0.000000      2.000000
  0.045149  0.026060  0.000000      2.000000
  0.067723  0.039089  0.000000      2.000000
  0.090298  0.052119  0.000000      2.000000
  0.112872  0.065149  0.000000      2.000000
  0.135446  0.078179  0.000000      2.000000
  0.158021  0.091209  0.000000      2.000000
  0.180595  0.104238  0.000000      2.000000
  0.203169  0.117268  0.000000      1.000000
  0.000000  0.026070  0.000000      2.000000
 -0.022574  0.013040  0.000000      2.000000
  0.022574  0.039100  0.000000      2.000000
 -0.045149  0.000011  0.000000      2.000000
  0.045149  0.052130  0.000000      2.000000
 -0.067723 -0.013019  0.000000      2.000000
  0.067723  0.065160  0.000000      2.000000
 -0.090298 -0.026049  0.000000      2.000000
  0.090298  0.078189  0.000000      2.000000
 -0.112872 -0.039079  0.000000      2.000000
  0.112872  0.091219  0.000000      2.000000
 -0.135446 -0.052109  0.000000      2.000000
  0.135446  0.104249  0.000000      2.000000
 -0.158021 -0.065138  0.000000      2.000000
  0.158021  0.117279  0.000000      2.000000
 -0.180595 -0.078168  0.000000      2.000000
  0.180595  0.130309  0.000000      2.000000
  0.203169  0.143338  0.000000      2.000000
  0.000000  0.052140  0.000000      2.000000
 -0.045149  0.026081  0.000000      2.000000
  0.022574  0.065170  0.000000      2.000000
 -0.067723  0.013051  0.000000      2.000000
  0.045149  0.078200  0.000000      2.000000
 -0.090298  0.000021  0.000000      2.000000
  0.067723  0.091230  0.000000      2.000000
 -0.112872 -0.013009  0.000000      2.000000
  0.090298  0.104260  0.000000      2.000000
[...]
 k-point  34 :  -0.2222 0.1111 0.0000  plane waves:    2147
 k-point  35 :   0.1667 0.1111 0.0000  plane waves:    2137
 k-point  36 :  -0.2778 0.1111 0.0000  plane waves:    2137
 k-point  37 :   0.2222 0.1111 0.0000  plane waves:    2130
 k-point  38 :  -0.3333 0.1111 0.0000  plane waves:    2130
 k-point  39 :   0.2778 0.1111 0.0000  plane waves:    2122
 k-point  40 :  -0.3889 0.1111 0.0000  plane waves:    2122
 k-point  41 :   0.3333 0.1111 0.0000  plane waves:    2102
 k-point  42 :  -0.4444 0.1111 0.0000  plane waves:    2102
 k-point  43 :   0.3889 0.1111 0.0000  plane waves:    2105
 k-point  44 :   0.5000 0.1111 0.0000  plane waves:    2105
 k-point  45 :   0.4444 0.1111 0.0000  plane waves:    2120
 k-point  46 :  -0.0556 0.1111 0.0000  plane waves:    2141
 k-point  47 :   0.0000 0.1667 0.0000  plane waves:    2144
 k-point  48 :  -0.1667 0.1667 0.0000  plane waves:    2144
 k-point  49 :   0.0556 0.1667 0.0000  plane waves:    2136
 k-point  50 :  -0.2222 0.1667 0.0000  plane waves:    2136
 k-point  51 :   0.1111 0.1667 0.0000  plane waves:    2137
 k-point  52 :  -0.2778 0.1667 0.0000  plane waves:    2137
 k-point  53 :   0.1667 0.1667 0.0000  plane waves:    2131
 k-point  54 :  -0.3333 0.1667 0.0000  plane waves:    2131
 k-point  55 :   0.2222 0.1667 0.0000  plane waves:    2121
 k-point  56 :  -0.3889 0.1667 0.0000  plane waves:    2121
 k-point  57 :   0.2778 0.1667 0.0000  plane waves:    2099
 k-point  58 :  -0.4444 0.1667 0.0000  plane waves:    2099
 k-point  59 :   0.3333 0.1667 0.0000  plane waves:    2103
 k-point  60 :   0.5000 0.1667 0.0000  plane waves:    2103
[...]
 k-point 150 :  -0.3333 0.4444 0.0000  plane waves:    2102
 k-point 151 :  -0.1111 0.4444 0.0000  plane waves:    2102
 k-point 152 :  -0.2778 0.4444 0.0000  plane waves:    2097
 k-point 153 :  -0.1667 0.4444 0.0000  plane waves:    2097
 k-point 154 :  -0.2222 0.4444 0.0000  plane waves:    2105
 k-point 155 :   0.0000 0.5000 0.0000  plane waves:    2096
 k-point 156 :   0.5000 0.5000 0.0000  plane waves:    2096
 k-point 157 :   0.0556 0.5000 0.0000  plane waves:    2110
 k-point 158 :   0.4444 0.5000 0.0000  plane waves:    2110
 k-point 159 :   0.1111 0.5000 0.0000  plane waves:    2105
 k-point 160 :   0.3889 0.5000 0.0000  plane waves:    2105
 k-point 161 :   0.1667 0.5000 0.0000  plane waves:    2101
 k-point 162 :   0.3333 0.5000 0.0000  plane waves:    2101
 k-point 163 :   0.2222 0.5000 0.0000  plane waves:    2105
 k-point 164 :   0.2778 0.5000 0.0000  plane waves:    2105

 maximum and minimum number of plane-waves per node :       281      249

 maximum number of plane-waves:      2150
 maximum index in each direction:
   IXMAX=    5   IYMAX=    4   IZMAX=   27
   IXMIN=   -5   IYMIN=   -5   IZMIN=  -27

 parallel 3D FFT for wavefunctions:
    minimum data exchange during FFTs selected (reduces bandwidth)
 parallel 3D FFT for charge:
    minimum data exchange during FFTs selected (reduces bandwidth)

 Broyden mixing: mesh for mixing (old mesh)
   NGX =  9   NGY =  9   NGZ = 55
  (NGX  = 36   NGY  = 36   NGZ  =224)
  gives a total of   4455 points

 initial charge density was supplied:
 charge density of overlapping atoms calculated
 number of electron       8.0000000 magnetization
 keeping initial charge density in first step

 Maximum index for augmentation-charges         5185 (set IRDMAX)

 First call to EWALD:  gamma=   0.414
 Maximum number of real-space cells 5x 5x 1
 Maximum number of reciprocal cells 2x 2x 8

--------------------------------------- Iteration      1(   1)  ---------------------------------------

 eigenvalue-minimisations  :  2624
 total energy-change (2. order) : 0.3924179E+02  (-0.3145685E+03)
 number of electron       8.0000000 magnetization
 augmentation part        8.0000000 magnetization

 Free energy of the ion-electron system (eV)
  alpha Z        PSCENC =         4.17699423
  Ewald energy   TEWEN  =       841.29003295
  -Hartree energ DENC   =     -1059.79100847
  -exchange      EXHF   =         0.00000000
  -V(xc)+E(xc)   XCENC  =        26.38805508
  PAW double counting   =       217.04409276     -218.18290438
  entropy T*S    EENTRO =        -0.00102134
  eigenvalues    EBANDS =       -65.98023843
  atomic energy  EATOM  =       294.29778662
  Solvation  Ediel_sol  =         0.00000000
  free energy    TOTEN  =        39.24178902 eV

  energy without entropy =       39.24281036  energy(sigma->0) =       39.24229969

[...]

 eigenvalue-minimisations  :  3592
 total energy-change (2. order) :-0.5628269E+02  (-0.5034898E+02)
 number of electron       8.0000000 magnetization
 augmentation part        8.0000000 magnetization

[...]

 Broyden mixing:
  rms(total) = 0.63595E+00    rms(broyden)= 0.63587E+00
  rms(prec ) = 0.71271E+00
  weight for this iteration     100.00

[...]

 eigenvalues of (default mixing * dielectric matrix)
  average eigenvalue GAMMA=   2.1989
  2.1989

[...]

 Broyden mixing:
  rms(total) = 0.18259E-05    rms(broyden)= 0.90782E-06
  rms(prec ) = 0.97021E-06
  weight for this iteration     100.00
  WARNING: grid for Broyden might be to small

[...]

 average (electrostatic) potential at core
  the test charge radii are     0.6991
  (the norm of the test charge is              1.0000)
       1 -57.6503       2 -57.6503

 E-fermi :  -2.2264     XC(G=0):  -2.8648     alpha+bet : -2.5481

 Fermi energy:        -2.2264019024

 k-point     1 :       0.0000    0.0000    0.0000
  band No.  band energies     occupation
      1     -21.7892      2.00000
      2      -9.8836      2.00000
      3      -5.2635      2.00000
      4      -5.2401      2.00000
      5       1.0121      0.00000
      6       1.9146      0.00000
      7       2.4808      0.00000
      8       4.3280      0.00000

[...]

 soft charge-density along one line, spin component           1
         0         1         2         3         4         5         6         7         8         9
 total charge-density along one line

------------------------ aborting loop because EDIFF is reached ----------------------------------------

         DFTD3 V3.0 Rev 1
 IVDW         = 12
 DF pbe
 parameters
 VDW_S6       =    1.0000
 VDW_S8       =    0.7875
 VDW_A1       =    0.4289
 VDW_A2       =    4.4407
 k1-k3        =   16.0000    1.3333   -4.0000
 VDW_RADIUS   =   50.2022 A
 VDW_CNRADIUS =   21.1671 A
 Edisp (eV)   -0.17762

 E6    (eV) :    -0.1221
 E8    (eV) :    -0.0555
 % E8        : 31.25

  FORCE on cell =-STRESS in cart. coord.  units (eV):
  Direction    XX          YY          ZZ          XY          YZ          ZX
  Alpha Z     4.17699     4.17699     4.17699
  Ewald    1110.79161  1110.66289 -1380.16450     0.13104     0.00000     0.00000
  Hartree  1082.07515  1082.05851 -1070.79153     0.01721     0.00000     0.00000
  E(xc)     -29.74685   -29.74739   -30.86181     0.00053    -0.00000    -0.00000
  Local   -2279.26431 -2279.14314  2347.32366    -0.12371    -0.00000    -0.00000
  n-local    -7.18751    -7.19041    -6.53436     0.00263    -0.00000    -0.00000
  augment    -0.78604    -0.78582    -0.72275    -0.00020    -0.00000    -0.00000
  Kinetic   120.34529   120.38266   137.56355    -0.03600     0.00000     0.00000
  Fock        0.00000     0.00000     0.00000     0.00000     0.00000     0.00000
  vdW        -0.03376    -0.03362    -0.00146    -0.00013    -0.00000    -0.00000
  Total       0.37057     0.38066    -0.01221    -0.00863     0.00000     0.00000
  in kB       7.54743     7.75290    -0.24867    -0.17570     0.00000     0.00000

 VOLUME and BASIS-vectors are now :
  energy-cutoff  :      520.00
  volume of cell :       78.67
      direct lattice vectors                 reciprocal lattice vectors
     2.461000000  0.000000000  0.000000000     0.406338887  0.234536288  0.000000000
    -1.230000000  2.131000000  0.000000000     0.000000000  0.469263257  0.000000000
     0.000000000  0.000000000 15.000000000     0.000000000  0.000000000  0.066666667

[...]

 FORCES acting on ions
    electron-ion (+dipol)            ewald-force                    non-local-force                 convergence-correction
   0.498E-01 0.210E-01 -.457E-07   -.677E-01 -.299E-01 0.701E-15   -.108E-01 -.537E-02 -.106E-21   0.188E-06 0.160E-06 -.353E-11
   -.498E-01 -.210E-01 -.469E-07   0.677E-01 0.299E-01 -.118E-20   0.107E-01 0.537E-02 -.926E-22   -.216E-06 -.167E-06 -.343E-11
   0.449E-07 0.167E-07 -.925E-07   -.824E-14 -.817E-14 0.701E-15   -.179E-05 -.895E-06 -.199E-21   -.273E-07 -.727E-08 -.696E-11

 POSITION                                       TOTAL-FORCE (eV/Angst)
      0.00000      0.00000      0.50000        -0.028702     -0.014332      0.000000
      1.23000      0.71000      0.50000         0.028702      0.014332     -0.000000
    total drift:                               -0.000002     -0.000001     -0.000000

  FREE ENERGIE OF THE ION-ELECTRON SYSTEM (eV)
  free  energy   TOTEN  =       -18.62351406 eV

  energy  without entropy=      -18.62316724  energy(sigma->0) =      -18.62334065

[...]

         DFTD3 V3.0 Rev 1
 Edisp (eV)   -0.17667

[...]

 d Force =-0.4901331E-06[-0.511E-04, 0.501E-04]  d Energy =-0.4637714E-02 0.464E-02
 d Force =-0.4849778E-04[-0.212E-03, 0.115E-03]  d Ewald  = 0.1983522E+02-0.198E+02

 Steepest descent step on ions:
 trial-energy change:    0.004638  1 .order    0.004549   -0.006859    0.015956
  (g-gl).g = 0.686E-02      g.g   = 0.686E-02  gl.gl    = 0.000E+00
 g(Force)  = 0.497E-04   g(Stress)= 0.681E-02 ortho     = 0.000E+00
 gamma     =   0.00000
 trial     =   1.00000
 opt step  =   0.29576  (harmonic =   0.30063) maximal distance =0.00040953
 next E    =   -18.624526   (d E  =  -0.00101)

[...]

 Broyden mixing:
  rms(total) = 0.16167E-05    rms(broyden)= 0.35783E-06
  rms(prec ) = 0.36805E-06
  weight for this iteration     100.00
  WARNING: grid for Broyden might be to small

[...]

 d Force = 0.1136261E-04[-0.127E-04, 0.354E-04]  d Energy = 0.5639081E-02-0.563E-02
 d Force = 0.6866071E-04[-0.101E-04, 0.147E-03]  d Ewald  =-0.1390820E+02 0.139E+02

[...]

 d Force =-0.2195566E-07[-0.220E-07,-0.219E-07]  d Energy = 0.3672832E-07-0.587E-07
 d Force =-0.1761112E-07[-0.178E-07,-0.174E-07]  d Ewald  =-0.2405073E-01 0.241E-01

[...]

 d Force = 0.6982858E-06[-0.440E-05, 0.580E-05]  d Energy = 0.1361469E-05-0.663E-06
 d Force =-0.7456202E-05[-0.196E-04, 0.470E-05]  d Ewald  =-0.3071701E-01 0.307E-01

 Conjugate gradient step on ions:
 trial-energy change:   -0.000001  1 .order   -0.000001   -0.000007    0.000004
  (g-gl).g = 0.848E-05      g.g   = 0.819E-05  gl.gl    = 0.686E-02
 g(Force)  = 0.673E-05   g(Stress)= 0.146E-05 ortho     =-0.284E-06
 gamma     =   0.00124
 trial     =   0.85891
 opt step  =   0.53281  (harmonic =   0.53012) maximal distance =0.00027219
 next E    =   -18.624518   (d E  =  -0.00000)

[...]

 d Force = 0.9350456E-06[ 0.199E-06, 0.167E-05]  d Energy = 0.8266139E-06 0.108E-06
 d Force = 0.5696563E-05[ 0.394E-05, 0.745E-05]  d Ewald  = 0.1166408E-01-0.117E-01

[...]

 eigenvalue-minimisations  :  3704
 total energy-change (2. order) : 0.2920456E-07  (-0.8374002E-08)
 number of electron       8.0000000 magnetization
 augmentation part        0.1917836 magnetization

 Broyden mixing:
  rms(total) = 0.10490E-04    rms(broyden)= 0.10366E-04
  rms(prec ) = 0.10879E-04
  weight for this iteration     100.00

 eigenvalues of (default mixing * dielectric matrix)
  average eigenvalue GAMMA=   1.5462
  1.0731  2.0193

[...]

--------------------------------------- Iteration      7(   4)  ---------------------------------------

 eigenvalue-minimisations  :  3504
 total energy-change (2. order) :-0.8858478E-09  (-0.8059260E-09)
 number of electron       8.0000000 magnetization
 augmentation part        0.1917836 magnetization

 Free energy of the ion-electron system (eV)
  alpha Z        PSCENC =         4.15485261
  Ewald energy   TEWEN  =       835.40412618
  -Hartree energ DENC   =     -1087.40456707
  -exchange      EXHF   =         0.00000000
  -V(xc)+E(xc)   XCENC  =        27.53343027
  PAW double counting   =       832.91434438     -834.28162650
  entropy T*S    EENTRO =        -0.00034826
  eigenvalues    EBANDS =       -91.06511150
  atomic energy  EATOM  =       294.29778662
  Solvation  Ediel_sol  =         0.00000000
  free energy    TOTEN  =       -18.44711326 eV

  energy without entropy =      -18.44676500  energy(sigma->0) =      -18.44693913

 average (electrostatic) potential at core
  the test charge radii are     0.6991
  (the norm of the test charge is              1.0000)
       1 -57.6918       2 -57.6918

 E-fermi :  -2.2549     XC(G=0):  -2.8626     alpha+bet : -2.5346

 Fermi energy:        -2.2548559933

[...]

 k-point   164 :       0.2778    0.5000    0.0000
  band No.  band energies     occupation
      1     -17.4571      2.00000
      2     -12.9172      2.00000
      3     -11.0399      2.00000
      4      -4.9776      2.00000
      5       0.5185      0.00000
      6       6.9926      0.00000
      7       7.7158      0.00000
      8       8.6066      0.00000

 soft charge-density along one line, spin component           1
         0         1         2         3         4         5         6         7         8         9
 total charge-density along one line

------------------------ aborting loop because EDIFF is reached ----------------------------------------

         DFTD3 V3.0 Rev 1
 Edisp (eV)   -0.17740

 E6    (eV) :    -0.1220
 E8    (eV) :    -0.0554
 % E8        : 31.25

  FORCE on cell =-STRESS in cart. coord.  units (eV):
  Direction    XX          YY          ZZ          XY          YZ          ZX
  Alpha Z     4.15485     4.15485     4.15485
  Ewald    1104.12602  1104.12653 -1372.84846    -0.00174    -0.00000     0.00000
  Hartree  1076.07157  1076.07157 -1064.73858    -0.00035    -0.00000    -0.00000
  E(xc)     -29.69863   -29.69863   -30.81178    -0.00000    -0.00000    -0.00000
  Local   -2266.69908 -2266.69946  2334.09458     0.00178     0.00000     0.00000
  n-local    -7.11839    -7.11831    -6.49593     0.00009    -0.00000    -0.00000
  augment    -0.77753    -0.77752    -0.71706     0.00001     0.00000     0.00000
  Kinetic   119.98675   119.98612   137.35201    -0.00033     0.00000     0.00000
  Fock        0.00000     0.00000     0.00000     0.00000     0.00000     0.00000
  vdW        -0.04541    -0.04541    -0.00146    -0.00000     0.00000     0.00000
  Total       0.00015    -0.00025    -0.01184    -0.00054     0.00000     0.00000
  in kB       0.00305    -0.00506    -0.23985    -0.01086     0.00000     0.00000

 VOLUME and BASIS-vectors are now :
  energy-cutoff  :      520.00
  volume of cell :       79.09
      direct lattice vectors                 reciprocal lattice vectors
     2.467375151  0.000000000  0.000000000     0.405288997  0.233986950  0.000000000
    -1.233658490  2.136820932  0.000000000     0.000000000  0.467984933  0.000000000
     0.000000000  0.000000000 15.000000000     0.000000000  0.000000000  0.066666667

  length of vectors
     2.467375151  2.467370455 15.000000000     0.467984042  0.467984933  0.066666667

 FORCES acting on ions
    electron-ion (+dipol)            ewald-force                    non-local-force                 convergence-correction
   -.358E-02 0.756E-03 -.389E-07   0.365E-02 -.671E-03 0.697E-15   0.358E-04 0.222E-04 0.529E-22   0.482E-04 0.414E-05 -.110E-10
   0.358E-02 -.756E-03 -.389E-07   -.365E-02 0.671E-03 0.211E-20   -.355E-04 -.219E-04 0.529E-22   -.453E-04 -.420E-05 -.112E-10
   -.301E-05 -.552E-09 -.778E-07   -.451E-14 -.106E-13 0.697E-15   0.357E-06 0.342E-06 0.106E-21   0.289E-05 -.591E-07 -.222E-10

 POSITION                                       TOTAL-FORCE (eV/Angst)
      0.00000      0.00000      0.50000         0.000154      0.000111      0.000000
      1.23370      0.71228      0.50000        -0.000154     -0.000111     -0.000000
    total drift:                                0.000000      0.000000     -0.000000

  FREE ENERGIE OF THE ION-ELECTRON SYSTEM (eV)
  free  energy   TOTEN  =       -18.62451781 eV

  energy  without entropy=      -18.62416955  energy(sigma->0) =      -18.62434368

 d Force = 0.1213141E-07[ 0.362E-08, 0.206E-07]  d Energy = 0.1576048E-06-0.145E-06
 d Force = 0.2356598E-06[ 0.583E-07, 0.413E-06]  d Ewald  = 0.1995841E-02-0.200E-02

 Conjugate gradient step on ions:
 trial-energy change:   -0.000000  1 .order   -0.000000   -0.000000   -0.000000
  (g-gl).g = 0.388E-06      g.g   = 0.347E-06  gl.gl    = 0.819E-05
 g(Force)  = 0.549E-07   g(Stress)= 0.292E-06 ortho     =-0.408E-07
 gamma     =   0.04735
 trial     =   0.79369
 opt step  =   0.93526  (harmonic =   0.93526) maximal distance =0.00000000
 next E    =   -18.624518   (d E  =  -0.00000)

 reached required accuracy - stopping structural energy minimisation