 vasp.6.3.1 04May22 (build Aug 04 2022 13:02:54) complex

 executed on             LinuxIFC date 2024.12.04  11:42:32

 INCAR:
   ISTART = 1            (Read existing wavefunction
   ISPIN = 1            (Non-Spin polarised DFT)
   LREAL = .FALSE.       (Projection operators: automatic)
   ENCUT = 520        (Cut-off energy for plane wave basis set, in eV)
   PREC = A       (Precision level)
   LWAVE = .FALSE.        (Write WAVECAR or not)
   LCHARG = .FALSE.        (Write CHGCAR or not)
   ADDGRID = .TRUE.        (Increase grid
   KSPACING = 0.2000
   KGAMMA = .FALSE.
   IVDW = 12
   ISMEAR = 0            (Gaussian smearing
   SIGMA = 0.05         (Smearing value in eV
   NELM = 200           (Max electronic SCF steps)
   NELMIN = 6            (Min electronic SCF steps)
   EDIFF = 1E-08        (SCF energy convergence
   NSW = 0          (Max ionic steps)
   IBRION = -1            (Algorithm: 0-MD
   ISIF = 3           (Stress/relaxation: 2-Ions, 3-Shape/Ions/V, 4-Shape/Ions)
   EDIFFG = -1E-04        (Ionic convergence
   ISYM = 0
   SYMPREC = 1E-08
   NCORE = 14

 POTCAR:    PAW_PBE C 08Apr2002
|           W    W    AA    RRRRR   N    N  II  N    N   GGGG   !!!           |
|           W    W   A  A   R    R  NN   N  II  NN   N  G    G  !!!           |
|           W    W  A    A  R    R  N N  N  II  N N  N  G       !!!           |
|           W WW W  AAAAAA  RRRRR   N  N N  II  N  N N  G  GGG   !            |
|           WW  WW  A    A  R   R   N   NN  II  N   NN  G    G                |
|           W    W  A    A  R    R  N    N  II  N    N   GGGG   !!!           |
|     For optimal performance we recommend to set                             |
|       NCORE = 2 up to number-of-cores-per-socket                            |
|     This setting can greatly improve the performance of VASP for DFT.       |
|     The default, NCORE=1 might be grossly inefficient on modern             |
|     multi-core architectures or massively parallel machines. Do your        |
|     Unfortunately you need to use the default for GW and RPA                |
|     calculations (for HF NCORE is supported but not extensively tested      |
|     yet).                                                                   |

 POTCAR:    PAW_PBE C 08Apr2002
   VRHFIN =C: s2p2

   TITEL  = PAW_PBE C 08Apr2002
   POMASS =   12.011; ZVAL   =    4.000    mass and valenz
   ENMAX  =  400.000; ENMIN  =  300.000 eV

  PAW_PBE C 08Apr2002                   :

 POSCAR: Graphene
  positions in direct lattice
 exchange correlation table for  LEXCH =        8
   RHO(1)=    0.500       N(1)  =     2000
   RHO(2)=  100.500       N(2)  =     4000

 ion  position               nearest neighbor table
   1  0.000  0.000  0.500-
   2  0.667  0.333  0.500-

IMPORTANT INFORMATION: All symmetrisations will be switched off!
NOSYMM: (Re-)initialisation of all symmetry stuff for point group C_1.

                                     Primitive cell

  volume of cell :     335.6055

  direct lattice vectors                    reciprocal lattice vectors
     5.082792811  0.000000000  0.000000000     0.196742232  0.113585898  0.000000000
    -2.541336489  4.401851119  0.000000000     0.000000000  0.227177152  0.000000000
     0.000000000  0.000000000 15.000000000     0.000000000  0.000000000  0.066666667

  length of vectors
     5.082792811  5.082783138 15.000000000     0.227176719  0.227177152  0.066666667

  position of ions in fractional coordinates (direct lattice)
     0.000000000  0.000000000  0.500000000
     0.666668846  0.333334637  0.500000000

  ion indices of the primitive-cell ions
   primitive index   ion index
                 1           1
                 2           2

 KPOINTS: K-Spacing Value to Generate K-Mesh: 0.03

Automatic generation of k-mesh.
 Grid dimensions read from file:
 generate k-points for:    9    9    1

 Generating k-lattice:

  Cartesian coordinates                     Fractional coordinates (reciprocal lattice)
     0.021860248  0.012620655  0.000000000     0.111111111 -0.000000000  0.000000000
     0.000000000  0.025241906  0.000000000     0.000000000  0.111111111  0.000000000
     0.000000000  0.000000000  0.066666667     0.000000000  0.000000000  1.000000000

  Length of vectors
     0.025241858  0.025241906  0.066666667

  Shift w.r.t. Gamma in fractional coordinates (k-lattice)
     0.000000000  0.000000000  0.000000000

 Subroutine IBZKPT returns following result:

 Found     41 irreducible k-points:

 Following reciprocal coordinates:
            Coordinates               Weight
  0.000000  0.000000  0.000000      1.000000
  0.111111 -0.000000  0.000000      2.000000
  0.222222 -0.000000  0.000000      2.000000
  0.333333 -0.000000  0.000000      2.000000
  0.444444 -0.000000  0.000000      2.000000
  0.000000  0.111111  0.000000      2.000000
  0.111111  0.111111  0.000000      2.000000
  0.222222  0.111111  0.000000      2.000000
  0.333333  0.111111  0.000000      2.000000
  0.444444  0.111111  0.000000      2.000000
 -0.444444  0.111111  0.000000      2.000000
 -0.333333  0.111111  0.000000      2.000000
 -0.222222  0.111111  0.000000      2.000000
 -0.111111  0.111111  0.000000      2.000000
  0.000000  0.222222  0.000000      2.000000
  0.111111  0.222222  0.000000      2.000000
  0.222222  0.222222  0.000000      2.000000
  0.333333  0.222222  0.000000      2.000000
  0.444444  0.222222  0.000000      2.000000
 -0.444444  0.222222  0.000000      2.000000
 -0.333333  0.222222  0.000000      2.000000
 -0.222222  0.222222  0.000000      2.000000
 -0.111111  0.222222  0.000000      2.000000
  0.000000  0.333333  0.000000      2.000000
  0.111111  0.333333  0.000000      2.000000
  0.222222  0.333333  0.000000      2.000000
  0.333333  0.333333  0.000000      2.000000
  0.444444  0.333333  0.000000      2.000000
 -0.444444  0.333333  0.000000      2.000000
 -0.333333  0.333333  0.000000      2.000000
 -0.222222  0.333333  0.000000      2.000000
 -0.111111  0.333333  0.000000      2.000000
  0.000000  0.444444  0.000000      2.000000
  0.111111  0.444444  0.000000      2.000000
  0.222222  0.444444  0.000000      2.000000
  0.333333  0.444444  0.000000      2.000000
  0.444444  0.444444  0.000000      2.000000
 -0.444444  0.444444  0.000000      2.000000
 -0.333333  0.444444  0.000000      2.000000
 -0.222222  0.444444  0.000000      2.000000
 -0.111111  0.444444  0.000000      2.000000

 Following cartesian coordinates:
            Coordinates               Weight
  0.000000  0.000000  0.000000      1.000000
  0.021860  0.012621  0.000000      2.000000
  0.043720  0.025241  0.000000      2.000000
  0.065581  0.037862  0.000000      2.000000
  0.087441  0.050483  0.000000      2.000000
  0.000000  0.025242  0.000000      2.000000
  0.021860  0.037863  0.000000      2.000000
  0.043720  0.050483  0.000000      2.000000
  0.065581  0.063104  0.000000      2.000000
  0.087441  0.075725  0.000000      2.000000
 -0.087441 -0.025241  0.000000      2.000000
 -0.065581 -0.012620  0.000000      2.000000
 -0.043720  0.000001  0.000000      2.000000
 -0.021860  0.012621  0.000000      2.000000
  0.000000  0.050484  0.000000      2.000000
  0.021860  0.063104  0.000000      2.000000
  0.043720  0.075725  0.000000      2.000000
  0.065581  0.088346  0.000000      2.000000
  0.087441  0.100966  0.000000      2.000000
 -0.087441  0.000001  0.000000      2.000000
 -0.065581  0.012622  0.000000      2.000000
 -0.043720  0.025243  0.000000      2.000000
 -0.021860  0.037863  0.000000      2.000000
  0.000000  0.075726  0.000000      2.000000
  0.021860  0.088346  0.000000      2.000000
  0.043720  0.100967  0.000000      2.000000
  0.065581  0.113588  0.000000      2.000000
  0.087441  0.126208  0.000000      2.000000
 -0.087441  0.025243  0.000000      2.000000
 -0.065581  0.037864  0.000000      2.000000
 -0.043720  0.050484  0.000000      2.000000
 -0.021860  0.063105  0.000000      2.000000
  0.000000  0.100968  0.000000      2.000000
  0.021860  0.113588  0.000000      2.000000
  0.043720  0.126209  0.000000      2.000000
  0.065581  0.138830  0.000000      2.000000
  0.087441  0.151450  0.000000      2.000000
 -0.087441  0.050485  0.000000      2.000000
 -0.065581  0.063106  0.000000      2.000000
 -0.043720  0.075726  0.000000      2.000000
 -0.021860  0.088347  0.000000      2.000000

 SYSTEM =  unknown system
 POSCAR =  Graphene

 Startparameter for this run:
   NWRITE =      2    write-flag & timer
   PREC   = a         normal or accurate (medium, high low for compatibility)
   ISTART =      0    job   : 0-new  1-cont  2-samecut
   ICHARG =      2    charge: 1-file 2-atom 10-const
   ISPIN  =      1    spin polarized calculation?
   LNONCOLLINEAR =      F non collinear calculations
   LSORBIT =      F    spin-orbit coupling
   INIWAV =      1    electr: 0-lowe 1-rand  2-diag
   LASPH  =      F    aspherical Exc in radial PAW
 Electronic Relaxation 1
   ENCUT  =  520.0 eV  38.22 Ry    6.18 a.u.   9.45  9.45 27.89*2*pi/ulx,y,z
   ENINI  =  520.0     initial cutoff
   ENAUG  =  644.9 eV  augmentation charge cutoff
   NELM   =    200;   NELMIN=  6; NELMDL=  0     # of ELM steps
   EDIFF  = 0.1E-07   stopping-criterion for ELM
   LREAL  =      F    real-space projection
   NLSPLINE    = F    spline interpolate recip. space projectors
   LCOMPAT=      F    compatible to vasp.4.4
   GGA_COMPAT  = T    GGA compatible to vasp.4.4-vasp.4.6
   LMAXPAW     = -100 max onsite density
   LMAXMIX     =    2 max onsite mixed and CHGCAR
   VOSKOWN=      0    Vosko Wilk Nusair interpolation
   ROPT   =    0.00000
 Ionic relaxation
   EDIFFG = -.1E-03   stopping-criterion for IOM
   NSW    =      0    number of steps for IOM
   NBLOCK =      1;   KBLOCK =      1    inner block; outer block
   IBRION =     -1    ionic relax: 0-MD 1-quasi-New 2-CG
   NFREE  =      0    steps in history (QN), initial steepest desc. (CG)
   ISIF   =      3    stress and relaxation
   IWAVPR =     10    prediction:  0-non 1-charg 2-wave 3-comb
   ISYM   =      0    0-nonsym 1-usesym 2-fastsym
   LCORR  =      T    Harris-Foulkes like correction to forces

   POTIM  = 0.5000    time-step for ionic-motion
   TEIN   =    0.0    initial temperature
   TEBEG  =    0.0;   TEEND  =   0.0 temperature during run
   SMASS  =  -3.00    Nose mass-parameter (am)
   estimated Nose-frequenzy (Omega)   =  0.10E-29 period in steps = 0.13E+47 mass=  -0.590E-27a.u.
   SCALEE = 1.0000    scale energy and forces
   NPACO  =    256;   APACO  = 10.0  distance and # of slots for P.C.
   PSTRESS=    0.0 pullay stress

  Mass of Ions in am
   POMASS =  12.01
  Ionic Valenz
   ZVAL   =   4.00
  Atomic Wigner-Seitz radii
  virtual crystal weights
   VCA    =   1.00
   NELECT =       8.0000    total number of electrons
   NUPDOWN=      -1.0000    fix difference up-down

 DOS related values:
   EMIN   =  10.00;   EMAX   =-10.00  energy-range for DOS
   EFERMI =   0.00
   ISMEAR =     0;   SIGMA  =   0.05  broadening in eV -4-tet -1-fermi 0-gaus

 Electronic relaxation 2 (details)
   IALGO  =     38    algorithm
   LDIAG  =      T    sub-space diagonalisation (order eigenvalues)
   LSUBROT=      F    optimize rotation matrix (better conditioning)
[...]
   LKPOINTS_OPT  =     F    use optional k-point grid
   KPOINTS_OPT_MODE=     1    mode for optional k-point grid

 Orbital magnetization related:
   ORBITALMAG=     F  switch on orbital magnetization
   LCHIMAG   =     F  perturbation theory with respect to B field
   DQ        =  0.001000  dq finite difference perturbation B field
   LLRAUG    =     F  two centre corrections for induced B field

 Static calculation
 charge density and potential will be updated during run
 non-spin polarized calculation
 Variant of blocked Davidson
 Davidson routine will perform the subspace rotation
 perform sub-space diagonalisation
    after iterative eigenvector-optimisation
 modified Broyden-mixing scheme, WC =      100.0
 initial mixing is a Kerker type mixing with AMIX =  0.4000 and BMIX =      1.0000
 Hartree-type preconditioning will be used
 using additional bands            4
 reciprocal scheme for non local part
 use partial core corrections
 calculate Harris-corrections to forces
   (improved forces if not selfconsistent)
 use gradient corrections
 use of overlap-Matrix (Vanderbilt PP)
 Gauss-broadening in eV      SIGMA  =   0.05

  energy-cutoff  :      520.00
  volume of cell :      335.61
      direct lattice vectors                 reciprocal lattice vectors
     5.082792811  0.000000000  0.000000000     0.196742232  0.113585898  0.000000000
    -2.541336489  4.401851119  0.000000000     0.000000000  0.227177152  0.000000000
     0.000000000  0.000000000 15.000000000     0.000000000  0.000000000  0.066666667

[...]

 k-points in units of 2pi/SCALE and weight: K-Spacing Value to Generate K-Mesh: 0.03
   0.00000000  0.00000000  0.00000000       0.012
   0.02186025  0.01262066  0.00000000       0.025
   0.04372050  0.02524131  0.00000000       0.025
   0.06558074  0.03786197  0.00000000       0.025
   0.08744099  0.05048262  0.00000000       0.025
   0.00000000  0.02524191  0.00000000       0.025
   0.02186025  0.03786256  0.00000000       0.025
   0.04372050  0.05048322  0.00000000       0.025
   0.06558074  0.06310387  0.00000000       0.025
   0.08744099  0.07572453  0.00000000       0.025
  -0.08744099 -0.02524072  0.00000000       0.025
  -0.06558074 -0.01262006  0.00000000       0.025
  -0.04372050  0.00000060  0.00000000       0.025
  -0.02186025  0.01262125  0.00000000       0.025
   0.00000000  0.05048381  0.00000000       0.025
   0.02186025  0.06310447  0.00000000       0.025
   0.04372050  0.07572512  0.00000000       0.025
   0.06558074  0.08834578  0.00000000       0.025
   0.08744099  0.10096643  0.00000000       0.025
  -0.08744099  0.00000119  0.00000000       0.025
  -0.06558074  0.01262185  0.00000000       0.025
  -0.04372050  0.02524250  0.00000000       0.025
  -0.02186025  0.03786316  0.00000000       0.025
   0.00000000  0.07572572  0.00000000       0.025
   0.02186025  0.08834637  0.00000000       0.025
   0.04372050  0.10096703  0.00000000       0.025
   0.06558074  0.11358768  0.00000000       0.025
   0.08744099  0.12620834  0.00000000       0.025
  -0.08744099  0.02524310  0.00000000       0.025
  -0.06558074  0.03786375  0.00000000       0.025
  -0.04372050  0.05048441  0.00000000       0.025
  -0.02186025  0.06310506  0.00000000       0.025
   0.00000000  0.10096762  0.00000000       0.025
   0.02186025  0.11358828  0.00000000       0.025
   0.04372050  0.12620893  0.00000000       0.025
   0.06558074  0.13882959  0.00000000       0.025
   0.08744099  0.15145024  0.00000000       0.025
  -0.08744099  0.05048500  0.00000000       0.025
  -0.06558074  0.06310566  0.00000000       0.025
  -0.04372050  0.07572631  0.00000000       0.025
  -0.02186025  0.08834697  0.00000000       0.025

 k-points in reciprocal lattice and weights: K-Spacing Value to Generate K-Mesh: 0.03
   0.00000000  0.00000000  0.00000000       0.012
   0.11111111 -0.00000000  0.00000000       0.025
   0.22222222 -0.00000000  0.00000000       0.025
   0.33333333 -0.00000000  0.00000000       0.025
   0.44444444 -0.00000000  0.00000000       0.025
   0.00000000  0.11111111  0.00000000       0.025
   0.11111111  0.11111111  0.00000000       0.025
   0.22222222  0.11111111  0.00000000       0.025
   0.33333333  0.11111111  0.00000000       0.025
   0.44444444  0.11111111  0.00000000       0.025
  -0.44444444  0.11111111  0.00000000       0.025
  -0.33333333  0.11111111  0.00000000       0.025
  -0.22222222  0.11111111  0.00000000       0.025
  -0.11111111  0.11111111  0.00000000       0.025
   0.00000000  0.22222222  0.00000000       0.025
   0.11111111  0.22222222  0.00000000       0.025
   0.22222222  0.22222222  0.00000000       0.025
   0.33333333  0.22222222  0.00000000       0.025
   0.44444444  0.22222222  0.00000000       0.025
  -0.44444444  0.22222222  0.00000000       0.025
  -0.33333333  0.22222222  0.00000000       0.025
  -0.22222222  0.22222222  0.00000000       0.025
  -0.11111111  0.22222222  0.00000000       0.025
   0.00000000  0.33333333  0.00000000       0.025
   0.11111111  0.33333333  0.00000000       0.025
   0.22222222  0.33333333  0.00000000       0.025
   0.33333333  0.33333333  0.00000000       0.025
   0.44444444  0.33333333  0.00000000       0.025
  -0.44444444  0.33333333  0.00000000       0.025
  -0.33333333  0.33333333  0.00000000       0.025
  -0.22222222  0.33333333  0.00000000       0.025
  -0.11111111  0.33333333  0.00000000       0.025
   0.00000000  0.44444444  0.00000000       0.025
   0.11111111  0.44444444  0.00000000       0.025
   0.22222222  0.44444444  0.00000000       0.025
   0.33333333  0.44444444  0.00000000       0.025
   0.44444444  0.44444444  0.00000000       0.025
  -0.44444444  0.44444444  0.00000000       0.025
  -0.33333333  0.44444444  0.00000000       0.025
  -0.22222222  0.44444444  0.00000000       0.025
  -0.11111111  0.44444444  0.00000000       0.025

 position of ions in fractional coordinates (direct lattice)
   0.00000000  0.00000000  0.50000000
   0.66666885  0.33333464  0.50000000

 position of ions in cartesian coordinates  (Angst):
   0.00000000  0.00000000  7.50000000
   2.54142414  1.46728945  7.50000000

 k-point   1 :   0.0000 0.0000 0.0000  plane waves:    9067
 k-point   2 :   0.1111-0.0000 0.0000  plane waves:    9085
 k-point   3 :   0.2222-0.0000 0.0000  plane waves:    9062
 k-point   4 :   0.3333-0.0000 0.0000  plane waves:    9032
 k-point   5 :   0.4444-0.0000 0.0000  plane waves:    9000
 k-point   6 :   0.0000 0.1111 0.0000  plane waves:    9085
 k-point   7 :   0.1111 0.1111 0.0000  plane waves:    9067
 k-point   8 :   0.2222 0.1111 0.0000  plane waves:    9039
 k-point   9 :   0.3333 0.1111 0.0000  plane waves:    9022
 k-point  10 :   0.4444 0.1111 0.0000  plane waves:    9008
 k-point  11 :  -0.4444 0.1111 0.0000  plane waves:    9022
 k-point  12 :  -0.3333 0.1111 0.0000  plane waves:    9039
 k-point  13 :  -0.2222 0.1111 0.0000  plane waves:    9067
 k-point  14 :  -0.1111 0.1111 0.0000  plane waves:    9085
 k-point  15 :   0.0000 0.2222 0.0000  plane waves:    9062
 k-point  16 :   0.1111 0.2222 0.0000  plane waves:    9039
 k-point  17 :   0.2222 0.2222 0.0000  plane waves:    9017
 k-point  18 :   0.3333 0.2222 0.0000  plane waves:    9021
 k-point  19 :   0.4444 0.2222 0.0000  plane waves:    9021
 k-point  20 :  -0.4444 0.2222 0.0000  plane waves:    9017
 k-point  21 :  -0.3333 0.2222 0.0000  plane waves:    9039
 k-point  22 :  -0.2222 0.2222 0.0000  plane waves:    9062
 k-point  23 :  -0.1111 0.2222 0.0000  plane waves:    9067
 k-point  24 :   0.0000 0.3333 0.0000  plane waves:    9032
 k-point  25 :   0.1111 0.3333 0.0000  plane waves:    9022
 k-point  26 :   0.2222 0.3333 0.0000  plane waves:    9021
 k-point  27 :   0.3333 0.3333 0.0000  plane waves:    9054
 k-point  28 :   0.4444 0.3333 0.0000  plane waves:    9021
 k-point  29 :  -0.4444 0.3333 0.0000  plane waves:    9022
 k-point  30 :  -0.3333 0.3333 0.0000  plane waves:    9032
 k-point  31 :  -0.2222 0.3333 0.0000  plane waves:    9039
 k-point  32 :  -0.1111 0.3333 0.0000  plane waves:    9039
 k-point  33 :   0.0000 0.4444 0.0000  plane waves:    9000
 k-point  34 :   0.1111 0.4444 0.0000  plane waves:    9008
 k-point  35 :   0.2222 0.4444 0.0000  plane waves:    9021
 k-point  36 :   0.3333 0.4444 0.0000  plane waves:    9021
 k-point  37 :   0.4444 0.4444 0.0000  plane waves:    9008
 k-point  38 :  -0.4444 0.4444 0.0000  plane waves:    9000
 k-point  39 :  -0.3333 0.4444 0.0000  plane waves:    9022
 k-point  40 :  -0.2222 0.4444 0.0000  plane waves:    9017
 k-point  41 :  -0.1111 0.4444 0.0000  plane waves:    9022

 maximum and minimum number of plane-waves per node :       662      628

 maximum number of plane-waves:      9085
 maximum index in each direction:
   IXMAX=    9   IYMAX=    9   IZMAX=   27
   IXMIN=   -9   IYMIN=   -9   IZMIN=  -27

 parallel 3D FFT for wavefunctions:
    minimum data exchange during FFTs selected (reduces bandwidth)
 parallel 3D FFT for charge:
    minimum data exchange during FFTs selected (reduces bandwidth)

 Broyden mixing: mesh for mixing (old mesh)
   NGX = 19   NGY = 19   NGZ = 55
  (NGX  = 80   NGY  = 80   NGZ  =224)
  gives a total of  19855 points

 initial charge density was supplied:
 charge density of overlapping atoms calculated
 number of electron       8.0000000 magnetization
 keeping initial charge density in first step

 Maximum index for augmentation-charges         1992 (set IRDMAX)

 First call to EWALD:  gamma=   0.255
 Maximum number of real-space cells 4x 4x 2
 Maximum number of reciprocal cells 2x 2x 5

--------------------------------------- Iteration      1(   1)  ---------------------------------------

 eigenvalue-minimisations  :   656
 total energy-change (2. order) : 0.4180979E+02  (-0.2113868E+03)
 number of electron       8.0000000 magnetization
 augmentation part        8.0000000 magnetization

 Free energy of the ion-electron system (eV)
  alpha Z        PSCENC =         0.97908677
  Ewald energy   TEWEN  =        62.61501799
  -Hartree energ DENC   =      -306.25063116
  -exchange      EXHF   =         0.00000000
  -V(xc)+E(xc)   XCENC  =        21.46507254
  PAW double counting   =       217.04409276     -218.18290438
  entropy T*S    EENTRO =        -0.00325640
  eigenvalues    EBANDS =       -30.15447352
  atomic energy  EATOM  =       294.29778662
  Solvation  Ediel_sol  =         0.00000000
  free energy    TOTEN  =        41.80979123 eV

  energy without entropy =       41.81304763  energy(sigma->0) =       41.81141943

[...]

 eigenvalue-minimisations  :  1048
 total energy-change (2. order) :-0.3942161E+02  (-0.3762513E+02)
 number of electron       8.0000000 magnetization
 augmentation part        8.0000000 magnetization

[...]

 Broyden mixing:
  rms(total) = 0.25967E+00    rms(broyden)= 0.25923E+00
  rms(prec ) = 0.29068E+00
  weight for this iteration     100.00

[...]

 eigenvalues of (default mixing * dielectric matrix)
  average eigenvalue GAMMA=   1.5906
  1.5906

[...]

 eigenvalue-minimisations  :  1136
 total energy-change (2. order) : 0.3065875E-03  (-0.3056893E-03)
 number of electron       8.0000000 magnetization
 augmentation part       -0.0491050 magnetization

[...]

 Broyden mixing:
  rms(total) = 0.23109E-05    rms(broyden)= 0.23077E-05
  rms(prec ) = 0.27116E-05
  weight for this iteration     100.00

 eigenvalues of (default mixing * dielectric matrix)
  average eigenvalue GAMMA=   2.5142
  9.6198  6.2375  3.7748  2.9570  2.7622  2.2797  1.9685  1.7660  0.1966  1.2734
  1.0536  0.9838  0.9838  0.9278  0.9278

[...]

--------------------------------------- Iteration      1(  21)  ---------------------------------------

 eigenvalue-minimisations  :   328
 total energy-change (2. order) :-0.5941047E-08  (-0.2736775E-10)
 number of electron       8.0000000 magnetization
 augmentation part       -0.0491209 magnetization

 Free energy of the ion-electron system (eV)
  alpha Z        PSCENC =         0.97908677
  Ewald energy   TEWEN  =        62.61501799
  -Hartree energ DENC   =      -304.74683302
  -exchange      EXHF   =         0.00000000
  -V(xc)+E(xc)   XCENC  =        21.19257091
  PAW double counting   =       195.98901655     -197.06933528
  entropy T*S    EENTRO =        -0.00631851
  eigenvalues    EBANDS =       -76.64258944
  atomic energy  EATOM  =       294.29778662
  Solvation  Ediel_sol  =         0.00000000
  free energy    TOTEN  =        -3.39159742 eV

  energy without entropy =       -3.38527890  energy(sigma->0) =       -3.38843816

 average (electrostatic) potential at core
  the test charge radii are     0.6991
  (the norm of the test charge is              1.0000)
       1 -62.1539       2 -62.1539

 E-fermi :  -5.3378     XC(G=0):  -1.7766     alpha+bet : -0.5973

 Fermi energy:        -5.3378207646

 k-point     1 :       0.0000    0.0000    0.0000
  band No.  band energies     occupation
      1     -14.1876      2.00000
      2     -12.5403      2.00000
      3      -5.6797      2.00000
      4      -5.6796      2.00000
      5      -5.6318      2.00000
      6      -4.3784      0.00000
      7      -3.7984      0.00000
      8      -3.7984      0.00000

[...]

 k-point    41 :      -0.1111    0.4444    0.0000
  band No.  band energies     occupation
      1     -13.7812      2.00000
      2     -13.0931      2.00000
      3      -6.0469      2.00000
      4      -5.2971      0.24906
      5      -5.2755      0.07773
      6      -4.7476      0.00000
      7      -4.0506      0.00000
      8      -3.3081      0.00000

 soft charge-density along one line, spin component           1
         0         1         2         3         4         5         6         7         8         9
 total charge-density along one line

------------------------ aborting loop because EDIFF is reached ----------------------------------------

         DFTD3 V3.0 Rev 1
 IVDW         = 12
 DF pbe
 parameters
 VDW_S6       =    1.0000
 VDW_S8       =    0.7875
 VDW_A1       =    0.4289
 VDW_A2       =    4.4407
 k1-k3        =   16.0000    1.3333   -4.0000
 VDW_RADIUS   =   50.2022 A
 VDW_CNRADIUS =   21.1671 A
 Edisp (eV)   -0.06582

 E6    (eV) :    -0.0454
 E8    (eV) :    -0.0205
 % E8        : 31.07

  FORCE on cell =-STRESS in cart. coord.  units (eV):
  Direction    XX          YY          ZZ          XY          YZ          ZX
  Alpha Z     0.97909     0.97909     0.97909
  Ewald     193.06255   193.06279  -323.51041    -0.00084     0.00000    -0.00000
  Hartree   260.09541   260.09554  -215.44419    -0.00054    -0.00000     0.00000
  E(xc)     -24.15389   -24.15389   -24.59305    -0.00001     0.00000     0.00000
  Local    -544.91876  -544.91905   458.54104     0.00160     0.00000    -0.00000
  n-local    10.88742    10.88745    14.25378     0.00006     0.00000    -0.00000
  augment     0.18275     0.18275     0.10161    -0.00000     0.00000     0.00000
  Kinetic    98.04566    98.04554    89.65914    -0.00013    -0.00000    -0.00000
  Fock        0.00000     0.00000     0.00000     0.00000     0.00000     0.00000
  vdW        -0.08126    -0.08126    -0.00071    -0.00000     0.00000    -0.00000
  Total      -5.90103    -5.90104    -0.01371     0.00013     0.00000    -0.00000
  in kB     -28.17145   -28.17151    -0.06545     0.00064     0.00000    -0.00000

 VOLUME and BASIS-vectors are now :
  energy-cutoff  :      520.00
  volume of cell :      335.61
      direct lattice vectors                 reciprocal lattice vectors
     5.082792811  0.000000000  0.000000000     0.196742232  0.113585898  0.000000000
    -2.541336489  4.401851119  0.000000000     0.000000000  0.227177152  0.000000000
     0.000000000  0.000000000 15.000000000     0.000000000  0.000000000  0.066666667

  length of vectors
     5.082792811  5.082783138 15.000000000     0.227176719  0.227177152  0.066666667

 FORCES acting on ions
    electron-ion (+dipol)            ewald-force                    non-local-force                 convergence-correction
   -.651E-03 0.126E-03 -.439E-06   0.860E-03 -.158E-03 0.178E-18   -.315E-03 0.579E-04 0.203E-06   -.105E-05 -.278E-06 0.233E-06
   0.652E-03 -.126E-03 -.266E-06   -.860E-03 0.158E-03 -.165E-18   0.315E-03 -.580E-04 0.103E-06   0.608E-06 0.194E-06 0.149E-06
   0.763E-06 0.144E-06 -.704E-06   0.497E-15 0.103E-14 0.132E-19   -.421E-06 -.667E-07 0.306E-06   -.438E-06 -.843E-07 0.382E-06

 POSITION                                       TOTAL-FORCE (eV/Angst)
      0.00000      0.00000      7.50000        -0.000107      0.000025      0.000000
      2.54142      1.46729      7.50000         0.000107     -0.000025     -0.000000
    total drift:                               -0.000000     -0.000000     -0.000000

  FREE ENERGIE OF THE ION-ELECTRON SYSTEM (eV)
  free  energy   TOTEN  =        -3.45742071 eV

  energy  without entropy=       -3.45110220  energy(sigma->0) =       -3.45426145