 vasp.6.3.1 04May22 (build Aug 04 2022 13:02:54) complex

 executed on             LinuxIFC date 2024.11.25  05:08:03

 INCAR:
   ISTART = 1            (Read existing wavefunction
   ISPIN = 1            (Non-Spin polarised DFT)
   LREAL = .FALSE.       (Projection operators: automatic)
   ENCUT = 520        (Cut-off energy for plane wave basis set, in eV)
   PREC = A       (Precision level)
   LWAVE = .FALSE.        (Write WAVECAR or not)
   LCHARG = .FALSE.        (Write CHGCAR or not)
   ADDGRID = .TRUE.        (Increase grid
   KSPACING = 0.2000
   KGAMMA = .FALSE.
   IVDW = 12
   ISMEAR = 0            (Gaussian smearing
   SIGMA = 0.05         (Smearing value in eV
   NELM = 200           (Max electronic SCF steps)
   NELMIN = 6            (Min electronic SCF steps)
   EDIFF = 1E-08        (SCF energy convergence
   NSW = 0          (Max ionic steps)
   IBRION = -1            (Algorithm: 0-MD
   ISIF = 3           (Stress/relaxation: 2-Ions, 3-Shape/Ions/V, 4-Shape/Ions)
   EDIFFG = -1E-04        (Ionic convergence
   NCORE = 14

 POTCAR:    PAW_PBE C 08Apr2002
|           W    W    AA    RRRRR   N    N  II  N    N   GGGG   !!!           |
|           W    W   A  A   R    R  NN   N  II  NN   N  G    G  !!!           |
|           W    W  A    A  R    R  N N  N  II  N N  N  G       !!!           |
|           W WW W  AAAAAA  RRRRR   N  N N  II  N  N N  G  GGG   !            |
|           WW  WW  A    A  R   R   N   NN  II  N   NN  G    G                |
|           W    W  A    A  R    R  N    N  II  N    N   GGGG   !!!           |
|     For optimal performance we recommend to set                             |
|       NCORE = 2 up to number-of-cores-per-socket                            |
|     This setting can greatly improve the performance of VASP for DFT.       |
|     The default, NCORE=1 might be grossly inefficient on modern             |
|     multi-core architectures or massively parallel machines. Do your        |
|     Unfortunately you need to use the default for GW and RPA                |
|     calculations (for HF NCORE is supported but not extensively tested      |
|     yet).                                                                   |

 POTCAR:    PAW_PBE C 08Apr2002
   VRHFIN =C: s2p2

   TITEL  = PAW_PBE C 08Apr2002
   POMASS =   12.011; ZVAL   =    4.000    mass and valenz
   ENMAX  =  400.000; ENMIN  =  300.000 eV

  PAW_PBE C 08Apr2002                   :

 POSCAR: AB-stacked Graphene
  positions in direct lattice
  velocities in cartesian coordinates
 exchange correlation table for  LEXCH =        8
   RHO(1)=    0.500       N(1)  =     2000
   RHO(2)=  100.500       N(2)  =     4000

 ion  position               nearest neighbor table
   1  0.118  0.998  1.000-   2 1.42   2 1.42   2 1.42
   2  0.784  0.332  0.000-   1 1.42   1 1.42   1 1.42
   3  0.465  0.668  0.500-   4 1.42   4 1.42   4 1.42
   4  0.132  0.002  0.500-   3 1.42   3 1.42   3 1.42

  Warning from LATTYP: Monoclinic adjustment (A1->A3, A2->A1, A3->A2)!
  LATTYP: Found a base centered orthorhombic cell.
 ALAT       =     2.4664926102
 B/A-ratio  =     1.7321284541
 C/A-ratio  =     4.8652081707

  Lattice vectors:

 A1 = (   1.2335791197,   2.1359430323,  -0.0000000552)
 A2 = (  -2.4665805555,   0.0002435830,   0.0000000494)
 A3 = (  -0.0000000441,  -0.0000001059,  12.0000000000)

Analysis of symmetry for initial positions (statically):
 Subroutine PRICEL returns:
 Original cell was already a primitive cell.

 Routine SETGRP: Setting up the symmetry group for a
 base centered orthorhombic supercell.

 Subroutine GETGRP returns: Found  4 space group operations
 (whereof  2 operations were pure point group operations)
 out of a pool of  8 trial point group operations.

The static configuration has the point symmetry C_1h.
 The point group associated with its full space group is C_2h.

Analysis of symmetry for dynamics (positions and initial velocities):
 Subroutine PRICEL returns:
 Original cell was already a primitive cell.

 Routine SETGRP: Setting up the symmetry group for a
 base centered orthorhombic supercell.

 Subroutine GETGRP returns: Found  4 space group operations
 (whereof  2 operations were pure point group operations)
 out of a pool of  8 trial point group operations.

The dynamic configuration has the point symmetry C_1h.
 The point group associated with its full space group is C_2h.

 Subroutine INISYM returns: Found  4 space group operations
 (whereof  2 operations are pure point group operations),
 and found     1 'primitive' translations

                                     Primitive cell

  volume of cell :      63.2253

  direct lattice vectors                    reciprocal lattice vectors
     2.466580556 -0.000243583 -0.000000049     0.405442669  0.234020469  0.000000004
    -1.233001436  2.136186615 -0.000000006     0.000046231  0.468150580  0.000000004
    -0.000000044 -0.000000106 12.000000000     0.000000002  0.000000001  0.083333333

  length of vectors
     2.466580568  2.466492610 12.000000000     0.468133888  0.468150582  0.083333333

  position of ions in fractional coordinates (direct lattice)
     0.117794189  0.998254412  0.999999659
     0.784453271  0.331580559  0.000000223
     0.465038818  0.668419402  0.499999796
     0.131697875  0.001745627  0.500000322

  ion indices of the primitive-cell ions
   primitive index   ion index
                 1           1
                 2           2
                 3           3
                 4           4

 KPOINTS: K-Spacing Value to Generate K-Mesh: 0.03

Automatic generation of k-mesh.
 Grid dimensions read from file:
 generate k-points for:   18   18    3

 Generating k-lattice:

  Cartesian coordinates                     Fractional coordinates (reciprocal lattice)
     0.022524593  0.013001137  0.000000000     0.055555556  0.000000000 -0.000000000
     0.000002568  0.026008366  0.000000000     0.000000000  0.055555556  0.000000000
     0.000000001  0.000000000  0.027777778    -0.000000000 -0.000000000  0.333333333

  Length of vectors
     0.026007438  0.026008366  0.027777778

  Shift w.r.t. Gamma in fractional coordinates (k-lattice)
     0.000000000  0.000000000  0.000000000

 Subroutine IBZKPT returns following result:

 Found    328 irreducible k-points:

 Following reciprocal coordinates:
            Coordinates               Weight
  0.000000  0.000000  0.000000      1.000000
  0.055556 -0.000000  0.000000      2.000000
  0.111111 -0.000000 -0.000000      2.000000
  0.166667 -0.000000 -0.000000      2.000000
  0.222222 -0.000000  0.000000      2.000000
  0.277778 -0.000000  0.000000      2.000000
  0.333333 -0.000000 -0.000000      2.000000
  0.388889 -0.000000 -0.000000      2.000000
  0.444444 -0.000000  0.000000      2.000000
  0.500000 -0.000000  0.000000      1.000000
 -0.000000  0.055556 -0.000000      2.000000
 -0.055556  0.055556 -0.000000      2.000000
  0.055556  0.055556  0.000000      2.000000
 -0.111111  0.055556 -0.000000      2.000000
  0.111111  0.055556  0.000000      2.000000
 -0.166667  0.055556 -0.000000      2.000000
  0.166667  0.055556 -0.000000      2.000000
 -0.222222  0.055556 -0.000000      2.000000
  0.222222  0.055556  0.000000      2.000000
 -0.277778  0.055556 -0.000000      2.000000
  0.277778  0.055556  0.000000      2.000000
 -0.333333  0.055556 -0.000000      2.000000
  0.333333  0.055556 -0.000000      2.000000
 -0.388889  0.055556  0.000000      2.000000
  0.388889  0.055556 -0.000000      2.000000
 -0.444444  0.055556 -0.000000      2.000000
  0.444444  0.055556  0.000000      2.000000
  0.500000  0.055556 -0.000000      2.000000
 -0.000000  0.111111 -0.000000      2.000000
 -0.111111  0.111111  0.000000      2.000000
  0.055556  0.111111  0.000000      2.000000
 -0.166667  0.111111  0.000000      2.000000
  0.111111  0.111111  0.000000      2.000000
 -0.222222  0.111111 -0.000000      2.000000
  0.166667  0.111111 -0.000000      2.000000
 -0.277778  0.111111  0.000000      2.000000
  0.222222  0.111111 -0.000000      2.000000
 -0.333333  0.111111  0.000000      2.000000
  0.277778  0.111111  0.000000      2.000000
 -0.388889  0.111111 -0.000000      2.000000
  0.333333  0.111111 -0.000000      2.000000
 -0.444444  0.111111  0.000000      2.000000
  0.388889  0.111111 -0.000000      2.000000
  0.500000  0.111111  0.000000      2.000000
  0.444444  0.111111  0.000000      2.000000
 -0.055556  0.111111 -0.000000      2.000000
 -0.000000  0.166667 -0.000000      2.000000
 -0.166667  0.166667 -0.000000      2.000000
  0.055556  0.166667  0.000000      2.000000
 -0.222222  0.166667 -0.000000      2.000000
  0.111111  0.166667  0.000000      2.000000
 -0.277778  0.166667 -0.000000      2.000000
  0.166667  0.166667 -0.000000      2.000000
 -0.333333  0.166667  0.000000      2.000000
  0.222222  0.166667 -0.000000      2.000000
 -0.388889  0.166667 -0.000000      2.000000
  0.277778  0.166667  0.000000      2.000000
 -0.444444  0.166667 -0.000000      2.000000
  0.333333  0.166667  0.000000      2.000000
  0.500000  0.166667 -0.000000      2.000000
[...]
 -0.333333  0.444444  0.333333      4.000000
 -0.111111  0.444444 -0.333333      4.000000
 -0.277778  0.444444  0.333333      4.000000
 -0.166667  0.444444 -0.333333      4.000000
 -0.222222  0.444444  0.333333      4.000000
 -0.000000  0.500000  0.333333      2.000000
  0.500000  0.500000 -0.333333      2.000000
  0.055556  0.500000  0.333333      4.000000
  0.444444  0.500000 -0.333333      4.000000
  0.111111  0.500000  0.333333      4.000000
  0.388889  0.500000 -0.333333      4.000000
  0.166667  0.500000  0.333333      4.000000
  0.333333  0.500000 -0.333333      4.000000
  0.222222  0.500000  0.333333      4.000000
  0.277778  0.500000 -0.333333      4.000000

 Following cartesian coordinates:
            Coordinates               Weight
  0.000000  0.000000  0.000000      1.000000
  0.022525  0.013001  0.000000      2.000000
  0.045049  0.026002  0.000000      2.000000
  0.067574  0.039003  0.000000      2.000000
  0.090098  0.052005  0.000000      2.000000
  0.112623  0.065006  0.000000      2.000000
  0.135148  0.078007  0.000000      2.000000
  0.157672  0.091008  0.000000      2.000000
  0.180197  0.104009  0.000000      2.000000
  0.202721  0.117010  0.000000      1.000000
  0.000003  0.026008  0.000000      2.000000
 -0.022522  0.013007  0.000000      2.000000
  0.022527  0.039010  0.000000      2.000000
 -0.045047  0.000006 -0.000000      2.000000
  0.045052  0.052011  0.000000      2.000000
 -0.067571 -0.012995 -0.000000      2.000000
  0.067576  0.065012  0.000000      2.000000
 -0.090096 -0.025996 -0.000000      2.000000
  0.090101  0.078013  0.000000      2.000000
 -0.112620 -0.038997 -0.000000      2.000000
  0.112626  0.091014  0.000000      2.000000
 -0.135145 -0.051998 -0.000000      2.000000
  0.135150  0.104015  0.000000      2.000000
 -0.157670 -0.065000 -0.000000      2.000000
  0.157675  0.117016  0.000000      2.000000
 -0.180194 -0.078001 -0.000000      2.000000
  0.180199  0.130017  0.000000      2.000000
  0.202724  0.143019  0.000000      2.000000
  0.000005  0.052017  0.000000      2.000000
 -0.045044  0.026014  0.000000      2.000000
[...]
  -0.22222222  0.05555556 -0.00000000       0.002
   0.22222222  0.05555556  0.00000000       0.002
  -0.27777778  0.05555556 -0.00000000       0.002
   0.27777778  0.05555556  0.00000000       0.002
  -0.33333333  0.05555556 -0.00000000       0.002
   0.33333333  0.05555556 -0.00000000       0.002
  -0.38888889  0.05555556  0.00000000       0.002
   0.38888889  0.05555556 -0.00000000       0.002
  -0.44444444  0.05555556 -0.00000000       0.002
   0.44444444  0.05555556  0.00000000       0.002
   0.50000000  0.05555556 -0.00000000       0.002
  -0.00000000  0.11111111 -0.00000000       0.002
  -0.11111111  0.11111111  0.00000000       0.002
   0.05555556  0.11111111  0.00000000       0.002
  -0.16666667  0.11111111  0.00000000       0.002
   0.11111111  0.11111111  0.00000000       0.002
  -0.22222222  0.11111111 -0.00000000       0.002
   0.16666667  0.11111111 -0.00000000       0.002
  -0.27777778  0.11111111  0.00000000       0.002
   0.22222222  0.11111111 -0.00000000       0.002
  -0.33333333  0.11111111  0.00000000       0.002
   0.27777778  0.11111111  0.00000000       0.002
  -0.38888889  0.11111111 -0.00000000       0.002
   0.33333333  0.11111111 -0.00000000       0.002
  -0.44444444  0.11111111  0.00000000       0.002
   0.38888889  0.11111111 -0.00000000       0.002
   0.50000000  0.11111111  0.00000000       0.002
   0.44444444  0.11111111  0.00000000       0.002
  -0.05555556  0.11111111 -0.00000000       0.002
  -0.00000000  0.16666667 -0.00000000       0.002
  -0.16666667  0.16666667 -0.00000000       0.002
   0.05555556  0.16666667  0.00000000       0.002
  -0.22222222  0.16666667 -0.00000000       0.002
   0.11111111  0.16666667  0.00000000       0.002
  -0.27777778  0.16666667 -0.00000000       0.002
   0.16666667  0.16666667 -0.00000000       0.002
  -0.33333333  0.16666667  0.00000000       0.002
   0.22222222  0.16666667 -0.00000000       0.002
  -0.38888889  0.16666667 -0.00000000       0.002
   0.27777778  0.16666667  0.00000000       0.002
  -0.44444444  0.16666667 -0.00000000       0.002
   0.33333333  0.16666667  0.00000000       0.002
   0.50000000  0.16666667 -0.00000000       0.002
[...]
  -0.33333333  0.44444444  0.33333333       0.004
  -0.11111111  0.44444444 -0.33333333       0.004
  -0.27777778  0.44444444  0.33333333       0.004
  -0.16666667  0.44444444 -0.33333333       0.004
  -0.22222222  0.44444444  0.33333333       0.004
  -0.00000000  0.50000000  0.33333333       0.002
   0.50000000  0.50000000 -0.33333333       0.002
   0.05555556  0.50000000  0.33333333       0.004
   0.44444444  0.50000000 -0.33333333       0.004
   0.11111111  0.50000000  0.33333333       0.004
   0.38888889  0.50000000 -0.33333333       0.004
   0.16666667  0.50000000  0.33333333       0.004
   0.33333333  0.50000000 -0.33333333       0.004
   0.22222222  0.50000000  0.33333333       0.004
   0.27777778  0.50000000 -0.33333333       0.004

 position of ions in fractional coordinates (direct lattice)
   0.11779419  0.99825441  0.99999966
   0.78445327  0.33158056  0.00000022
   0.46503882  0.66841940  0.49999980
   0.13169788  0.00174563  0.50000032

 position of ions in cartesian coordinates  (Angst):
  -0.94030031  2.13242891 11.99999589
   1.52607788  0.70812687  0.00000264
   0.32289360  1.42775525  5.99999752
   0.32269103  0.00369685  6.00000386

 k-point   1 :   0.0000 0.0000 0.0000  plane waves:    1707
 k-point   2 :   0.0556-0.0000 0.0000  plane waves:    1704
 k-point   3 :   0.1111-0.0000-0.0000  plane waves:    1720
 k-point   4 :   0.1667-0.0000-0.0000  plane waves:    1722
 k-point   5 :   0.2222-0.0000 0.0000  plane waves:    1724
 k-point   6 :   0.2778-0.0000 0.0000  plane waves:    1728
 k-point   7 :   0.3333-0.0000-0.0000  plane waves:    1710
 k-point   8 :   0.3889-0.0000-0.0000  plane waves:    1690
 k-point   9 :   0.4444-0.0000 0.0000  plane waves:    1698
 k-point  10 :   0.5000-0.0000 0.0000  plane waves:    1684
 k-point  11 :  -0.0000 0.0556-0.0000  plane waves:    1704
 k-point  12 :  -0.0556 0.0556-0.0000  plane waves:    1704
 k-point  13 :   0.0556 0.0556 0.0000  plane waves:    1723
 k-point  14 :  -0.1111 0.0556-0.0000  plane waves:    1723
 k-point  15 :   0.1111 0.0556 0.0000  plane waves:    1717
 k-point  16 :  -0.1667 0.0556-0.0000  plane waves:    1717
 k-point  17 :   0.1667 0.0556-0.0000  plane waves:    1724
 k-point  18 :  -0.2222 0.0556-0.0000  plane waves:    1724
 k-point  19 :   0.2222 0.0556 0.0000  plane waves:    1720
 k-point  20 :  -0.2778 0.0556-0.0000  plane waves:    1720
 k-point  21 :   0.2778 0.0556 0.0000  plane waves:    1718
 k-point  22 :  -0.3333 0.0556-0.0000  plane waves:    1718
 k-point  23 :   0.3333 0.0556-0.0000  plane waves:    1696
 k-point  24 :  -0.3889 0.0556 0.0000  plane waves:    1696
 k-point  25 :   0.3889 0.0556-0.0000  plane waves:    1689
 k-point  26 :  -0.4444 0.0556-0.0000  plane waves:    1689
 k-point  27 :   0.4444 0.0556 0.0000  plane waves:    1698
 k-point  28 :   0.5000 0.0556-0.0000  plane waves:    1698
 k-point  29 :  -0.0000 0.1111-0.0000  plane waves:    1720
 k-point  30 :  -0.1111 0.1111 0.0000  plane waves:    1720
 k-point  31 :   0.0556 0.1111 0.0000  plane waves:    1717
 k-point  32 :  -0.1667 0.1111 0.0000  plane waves:    1717
 k-point  33 :   0.1111 0.1111 0.0000  plane waves:    1707
 k-point  34 :  -0.2222 0.1111-0.0000  plane waves:    1707
 k-point  35 :   0.1667 0.1111-0.0000  plane waves:    1715
 k-point  36 :  -0.2778 0.1111 0.0000  plane waves:    1715
 k-point  37 :   0.2222 0.1111-0.0000  plane waves:    1716
 k-point  38 :  -0.3333 0.1111 0.0000  plane waves:    1716
 k-point  39 :   0.2778 0.1111 0.0000  plane waves:    1706
 k-point  40 :  -0.3889 0.1111-0.0000  plane waves:    1706
 k-point  41 :   0.3333 0.1111-0.0000  plane waves:    1700
 k-point  42 :  -0.4444 0.1111 0.0000  plane waves:    1700
 k-point  43 :   0.3889 0.1111-0.0000  plane waves:    1693
 k-point  44 :   0.5000 0.1111 0.0000  plane waves:    1693
 k-point  45 :   0.4444 0.1111 0.0000  plane waves:    1696
 k-point  46 :  -0.0556 0.1111-0.0000  plane waves:    1723
 k-point  47 :  -0.0000 0.1667-0.0000  plane waves:    1722
 k-point  48 :  -0.1667 0.1667-0.0000  plane waves:    1722
 k-point  49 :   0.0556 0.1667 0.0000  plane waves:    1724
 k-point  50 :  -0.2222 0.1667-0.0000  plane waves:    1724
 k-point  51 :   0.1111 0.1667 0.0000  plane waves:    1715
 k-point  52 :  -0.2778 0.1667-0.0000  plane waves:    1715
 k-point  53 :   0.1667 0.1667-0.0000  plane waves:    1727
 k-point  54 :  -0.3333 0.1667 0.0000  plane waves:    1727
 k-point  55 :   0.2222 0.1667-0.0000  plane waves:    1705
 k-point  56 :  -0.3889 0.1667-0.0000  plane waves:    1705
 k-point  57 :   0.2778 0.1667 0.0000  plane waves:    1692
 k-point  58 :  -0.4444 0.1667-0.0000  plane waves:    1692
 k-point  59 :   0.3333 0.1667 0.0000  plane waves:    1695
 k-point  60 :   0.5000 0.1667-0.0000  plane waves:    1695
[...]
 k-point 314 :  -0.3333 0.4444 0.3333  plane waves:    1688
 k-point 315 :  -0.1111 0.4444-0.3333  plane waves:    1688
 k-point 316 :  -0.2778 0.4444 0.3333  plane waves:    1690
 k-point 317 :  -0.1667 0.4444-0.3333  plane waves:    1690
 k-point 318 :  -0.2222 0.4444 0.3333  plane waves:    1683
 k-point 319 :  -0.0000 0.5000 0.3333  plane waves:    1694
 k-point 320 :   0.5000 0.5000-0.3333  plane waves:    1694
 k-point 321 :   0.0556 0.5000 0.3333  plane waves:    1696
 k-point 322 :   0.4444 0.5000-0.3333  plane waves:    1696
 k-point 323 :   0.1111 0.5000 0.3333  plane waves:    1687
 k-point 324 :   0.3889 0.5000-0.3333  plane waves:    1687
 k-point 325 :   0.1667 0.5000 0.3333  plane waves:    1690
 k-point 326 :   0.3333 0.5000-0.3333  plane waves:    1690
 k-point 327 :   0.2222 0.5000 0.3333  plane waves:    1690
 k-point 328 :   0.2778 0.5000-0.3333  plane waves:    1690

 maximum and minimum number of plane-waves per node :       136      110

 maximum number of plane-waves:      1728
 maximum index in each direction:
   IXMAX=    5   IYMAX=    4   IZMAX=   22
   IXMIN=   -5   IYMIN=   -5   IZMIN=  -22

 parallel 3D FFT for wavefunctions:
    minimum data exchange during FFTs selected (reduces bandwidth)
 parallel 3D FFT for charge:
    minimum data exchange during FFTs selected (reduces bandwidth)

 Broyden mixing: mesh for mixing (old mesh)
   NGX =  9   NGY =  9   NGZ = 45
  (NGX  = 36   NGY  = 36   NGZ  =180)
  gives a total of   3645 points

 initial charge density was supplied:
 charge density of overlapping atoms calculated
 number of electron      16.0000000 magnetization
 keeping initial charge density in first step

 Maximum index for augmentation-charges         2095 (set IRDMAX)

 First call to EWALD:  gamma=   0.445
 Maximum number of real-space cells 5x 5x 1
 Maximum number of reciprocal cells 2x 2x 7

--------------------------------------- Iteration      1(   1)  ---------------------------------------

 eigenvalue-minimisations  :  7880
 total energy-change (2. order) : 0.7117510E+02  (-0.7091064E+03)
 number of electron      16.0000000 magnetization
 augmentation part       16.0000000 magnetization

 Free energy of the ion-electron system (eV)
  alpha Z        PSCENC =        20.78831099
  Ewald energy   TEWEN  =        23.76935537
  -Hartree energ DENC   =      -535.88904239
  -exchange      EXHF   =         0.00000000
  -V(xc)+E(xc)   XCENC  =        52.71420212
  PAW double counting   =       434.08818552     -436.36580876
  entropy T*S    EENTRO =        -0.00106491
  eigenvalues    EBANDS =       -76.52461439
  atomic energy  EATOM  =       588.59557325
  Solvation  Ediel_sol  =         0.00000000
  free energy    TOTEN  =        71.17509681 eV

  energy without entropy =       71.17616172  energy(sigma->0) =       71.17562926

[...]

 eigenvalue-minimisations  : 11620
 total energy-change (2. order) :-0.1039512E+03  (-0.9437806E+02)
 number of electron      16.0000000 magnetization
 augmentation part       16.0000000 magnetization

[...]

 Broyden mixing:
  rms(total) = 0.89160E+00    rms(broyden)= 0.89150E+00
  rms(prec ) = 0.10547E+01
  weight for this iteration     100.00

[...]

 eigenvalues of (default mixing * dielectric matrix)
  average eigenvalue GAMMA=   2.2062
  2.2062

[...]

 eigenvalue-minimisations  :  7276
 total energy-change (2. order) :-0.2665615E-07  (-0.6424331E-09)
 number of electron      16.0000000 magnetization
 augmentation part        0.3838526 magnetization

 Broyden mixing:
  rms(total) = 0.55274E-05    rms(broyden)= 0.54149E-05
  rms(prec ) = 0.57689E-05
  weight for this iteration     100.00

 eigenvalues of (default mixing * dielectric matrix)
  average eigenvalue GAMMA=   1.9836
  4.0986  2.8858  2.4899  2.4899  2.0149  1.8556  0.9575  0.9575  1.0158  1.0711

[...]

--------------------------------------- Iteration      1(  16)  ---------------------------------------

 eigenvalue-minimisations  :  6876
 total energy-change (2. order) : 0.7333938E-09  (-0.1022109E-09)
 number of electron      16.0000000 magnetization
 augmentation part        0.3838526 magnetization

 Free energy of the ion-electron system (eV)
  alpha Z        PSCENC =        20.78831099
  Ewald energy   TEWEN  =        23.76935537
  -Hartree energ DENC   =      -588.27160367
  -exchange      EXHF   =         0.00000000
  -V(xc)+E(xc)   XCENC  =        55.07856122
  PAW double counting   =      1668.00476276    -1670.74018594
  entropy T*S    EENTRO =        -0.00069465
  eigenvalues    EBANDS =      -134.11803200
  atomic energy  EATOM  =       588.59557325
  Solvation  Ediel_sol  =         0.00000000
  free energy    TOTEN  =       -36.89395266 eV

  energy without entropy =      -36.89325802  energy(sigma->0) =      -36.89360534

 average (electrostatic) potential at core
  the test charge radii are     0.6991
  (the norm of the test charge is              1.0000)
       1 -54.6857       2 -54.6858       3 -54.6857       4 -54.6858

 E-fermi :   0.7498     XC(G=0):  -6.7790     alpha+bet : -6.3407

 Fermi energy:         0.7498139050

 k-point     1 :       0.0000    0.0000    0.0000
  band No.  band energies     occupation
      1     -18.7576      2.00000
      2     -18.7569      2.00000
      3      -6.8752      2.00000
      4      -6.8457      2.00000
      5      -2.2791      2.00000
      6      -2.2791      2.00000
      7      -2.2783      2.00000
      8      -2.2783      2.00000
      9       3.4380      0.00000
     10       4.7823      0.00000
     11       6.1753      0.00000
     12       9.0668      0.00000

[...]

 k-point   328 :       0.2778    0.5000   -0.3333
  band No.  band energies     occupation
      1     -14.4578      2.00000
      2     -14.4575      2.00000
      3      -9.9155      2.00000
      4      -9.9154      2.00000
      5      -8.0402      2.00000
      6      -8.0401      2.00000
      7      -1.9796      2.00000
      8      -1.9712      2.00000
      9       3.5245      0.00000
     10       3.5267      0.00000
     11       9.5710      0.00000
     12      10.0001      0.00000

 soft charge-density along one line, spin component           1
         0         1         2         3         4         5         6         7         8         9
 total charge-density along one line

------------------------ aborting loop because EDIFF is reached ----------------------------------------

         DFTD3 V3.0 Rev 1
 IVDW         = 12
 DF pbe
 parameters
 VDW_S6       =    1.0000
 VDW_S8       =    0.7875
 VDW_A1       =    0.4289
 VDW_A2       =    4.4407
 k1-k3        =   16.0000    1.3333   -4.0000
 VDW_RADIUS   =   50.2022 A
 VDW_CNRADIUS =   21.1671 A
 Edisp (eV)   -0.38527

 E6    (eV) :    -0.2713
 E8    (eV) :    -0.1139
 % E8        : 29.58

  FORCE on cell =-STRESS in cart. coord.  units (eV):
  Direction    XX          YY          ZZ          XY          YZ          ZX
  Alpha Z    20.78831    20.78831    20.78831
  Ewald     561.39860   561.39233 -1099.02173    -0.00054    -0.00002    -0.00003
  Hartree   565.62109   565.62087  -542.97026    -0.00055    -0.00002    -0.00002
  E(xc)     -59.40902   -59.40908   -61.63625     0.00002    -0.00000    -0.00000
  Local   -1312.47250 -1312.46739  1422.49758     0.00113     0.00004     0.00006
  n-local   -14.25362   -14.25448   -12.99990     0.00055     0.00003     0.00005
  augment    -1.55717    -1.55709    -1.43550     0.00001    -0.00000    -0.00000
  Kinetic   240.06537   240.07180   274.74930    -0.00351    -0.00011    -0.00016
  Fock        0.00000     0.00000     0.00000     0.00000     0.00000     0.00000
  vdW        -0.09073    -0.09068    -0.12873    -0.00003    -0.00000    -0.00000
  Total       0.09033     0.09458    -0.15718    -0.00291     0.00000    -0.00000
  in kB       2.28901     2.39676    -3.98310    -0.07382     0.00000    -0.00000

 VOLUME and BASIS-vectors are now :
  energy-cutoff  :      520.00
  volume of cell :       63.23
      direct lattice vectors                 reciprocal lattice vectors
     2.466580556 -0.000243583 -0.000000049     0.405442669  0.234020469  0.000000004
    -1.233001436  2.136186615 -0.000000006     0.000046231  0.468150580  0.000000004
    -0.000000044 -0.000000106 12.000000000     0.000000002  0.000000001  0.083333333

  length of vectors
     2.466580568  2.466492610 12.000000000     0.468133888  0.468150582  0.083333333

 FORCES acting on ions
    electron-ion (+dipol)            ewald-force                    non-local-force                 convergence-correction
   -.653E-02 -.309E-02 0.150E-02   0.625E-02 0.308E-02 -.166E-02   -.138E-03 -.228E-03 0.601E-11   0.955E-06 -.525E-06 -.194E-04
   0.643E-02 0.393E-02 -.342E-02   -.624E-02 -.308E-02 0.192E-02   0.135E-03 0.230E-03 -.598E-11   -.160E-05 0.695E-06 -.194E-04
   -.655E-02 -.305E-02 0.330E-03   0.622E-02 0.311E-02 -.180E-02   -.135E-03 -.230E-03 0.598E-11   0.160E-05 -.695E-06 0.207E-04
   0.645E-02 0.389E-02 -.426E-02   -.622E-02 -.311E-02 0.154E-02   0.138E-03 0.228E-03 -.601E-11   -.955E-06 0.525E-06 0.207E-04
   -.207E-03 0.169E-02 -.585E-02   -.903E-14 -.165E-14 -.217E-18   -.542E-19 0.542E-19 -.593E-20   -.924E-11 -.398E-09 0.252E-05

 POSITION                                       TOTAL-FORCE (eV/Angst)
     -0.94030      2.13243     12.00000        -0.000397     -0.000627      0.000000
      1.52608      0.70813      0.00000         0.000393      0.000629     -0.000000
      0.32289      1.42776      6.00000        -0.000393     -0.000629      0.000000
      0.32269      0.00370      6.00000         0.000397      0.000627     -0.000000
    total drift:                               -0.000207      0.001689     -0.005844

  FREE ENERGIE OF THE ION-ELECTRON SYSTEM (eV)
  free  energy   TOTEN  =       -37.27922733 eV

  energy  without entropy=      -37.27853268  energy(sigma->0) =      -37.27888000