 vasp.6.3.1 04May22 (build Aug 04 2022 13:02:54) complex

 executed on             LinuxIFC date 2024.11.27  04:33:45

 INCAR:
   ISTART = 1            (Read existing wavefunction
   ISPIN = 1            (Non-Spin polarised DFT)
   LREAL = .FALSE.       (Projection operators: automatic)
   ENCUT = 520        (Cut-off energy for plane wave basis set, in eV)
   PREC = A       (Precision level)
   LWAVE = .FALSE.        (Write WAVECAR or not)
   LCHARG = .FALSE.        (Write CHGCAR or not)
   ADDGRID = .TRUE.        (Increase grid
   KSPACING = 0.2000
   KGAMMA = .FALSE.
   IVDW = 12
   ISMEAR = 0            (Gaussian smearing
   SIGMA = 0.05         (Smearing value in eV
   NELM = 200           (Max electronic SCF steps)
   NELMIN = 6            (Min electronic SCF steps)
   EDIFF = 1E-08        (SCF energy convergence
   NSW = 0          (Max ionic steps)
   IBRION = -1            (Algorithm: 0-MD
   ISIF = 3           (Stress/relaxation: 2-Ions, 3-Shape/Ions/V, 4-Shape/Ions)
   EDIFFG = -1E-04        (Ionic convergence
   ISYM = 0
   SYMPREC = 1E-08
   NCORE = 14

 POTCAR:    PAW_PBE C 08Apr2002
|           W    W    AA    RRRRR   N    N  II  N    N   GGGG   !!!           |
|           W    W   A  A   R    R  NN   N  II  NN   N  G    G  !!!           |
|           W    W  A    A  R    R  N N  N  II  N N  N  G       !!!           |
|           W WW W  AAAAAA  RRRRR   N  N N  II  N  N N  G  GGG   !            |
|           WW  WW  A    A  R   R   N   NN  II  N   NN  G    G                |
|           W    W  A    A  R    R  N    N  II  N    N   GGGG   !!!           |
|     For optimal performance we recommend to set                             |
|       NCORE = 2 up to number-of-cores-per-socket                            |
|     This setting can greatly improve the performance of VASP for DFT.       |
|     The default, NCORE=1 might be grossly inefficient on modern             |
|     multi-core architectures or massively parallel machines. Do your        |
|     Unfortunately you need to use the default for GW and RPA                |
|     calculations (for HF NCORE is supported but not extensively tested      |
|     yet).                                                                   |

 POTCAR:    PAW_PBE C 08Apr2002
   VRHFIN =C: s2p2

   TITEL  = PAW_PBE C 08Apr2002
   POMASS =   12.011; ZVAL   =    4.000    mass and valenz
   ENMAX  =  400.000; ENMIN  =  300.000 eV

  PAW_PBE C 08Apr2002                   :

 POSCAR: Graphene
  positions in direct lattice
 exchange correlation table for  LEXCH =        8
   RHO(1)=    0.500       N(1)  =     2000
   RHO(2)=  100.500       N(2)  =     4000

 ion  position               nearest neighbor table
   1  0.000  0.000  0.500-   2 1.21   2 1.21   2 1.21
   2  0.667  0.333  0.500-   1 1.21   1 1.21   1 1.21

IMPORTANT INFORMATION: All symmetrisations will be switched off!
NOSYMM: (Re-)initialisation of all symmetry stuff for point group C_1.

                                     Primitive cell

  volume of cell :      57.1390

  direct lattice vectors                    reciprocal lattice vectors
     2.097268878  0.000000000  0.000000000     0.476810585  0.275278764  0.000000000
    -1.048609716  1.816297792  0.000000000     0.000000000  0.550570509  0.000000000
     0.000000000  0.000000000 15.000000000     0.000000000  0.000000000  0.066666667

  length of vectors
     2.097268878  2.097264887 15.000000000     0.550569461  0.550570509  0.066666667

  position of ions in fractional coordinates (direct lattice)
     0.000000000  0.000000000  0.500000000
     0.666668846  0.333334637  0.500000000

  ion indices of the primitive-cell ions
   primitive index   ion index
                 1           1
                 2           2

 KPOINTS: K-Spacing Value to Generate K-Mesh: 0.03

Automatic generation of k-mesh.
 Grid dimensions read from file:
 generate k-points for:   21   21    1

 Generating k-lattice:

  Cartesian coordinates                     Fractional coordinates (reciprocal lattice)
     0.022705266  0.013108513  0.000000000     0.047619048 -0.000000000  0.000000000
     0.000000000  0.026217643  0.000000000     0.000000000  0.047619048  0.000000000
     0.000000000  0.000000000  0.066666667     0.000000000  0.000000000  1.000000000

  Length of vectors
     0.026217593  0.026217643  0.066666667

  Shift w.r.t. Gamma in fractional coordinates (k-lattice)
     0.000000000  0.000000000  0.000000000

 Subroutine IBZKPT returns following result:

 Found    221 irreducible k-points:

 Following reciprocal coordinates:
            Coordinates               Weight
  0.000000  0.000000  0.000000      1.000000
  0.047619 -0.000000  0.000000      2.000000
  0.095238 -0.000000  0.000000      2.000000
  0.142857 -0.000000  0.000000      2.000000
  0.190476 -0.000000  0.000000      2.000000
  0.238095 -0.000000  0.000000      2.000000
  0.285714 -0.000000  0.000000      2.000000
  0.333333 -0.000000  0.000000      2.000000
  0.380952 -0.000000  0.000000      2.000000
  0.428571 -0.000000  0.000000      2.000000
  0.476190 -0.000000  0.000000      2.000000
  0.000000  0.047619  0.000000      2.000000
  0.047619  0.047619  0.000000      2.000000
  0.095238  0.047619  0.000000      2.000000
  0.142857  0.047619  0.000000      2.000000
  0.190476  0.047619  0.000000      2.000000
  0.238095  0.047619  0.000000      2.000000
  0.285714  0.047619  0.000000      2.000000
  0.333333  0.047619  0.000000      2.000000
  0.380952  0.047619  0.000000      2.000000
  0.428571  0.047619  0.000000      2.000000
  0.476190  0.047619  0.000000      2.000000
 -0.476190  0.047619  0.000000      2.000000
 -0.428571  0.047619  0.000000      2.000000
 -0.380952  0.047619  0.000000      2.000000
 -0.333333  0.047619  0.000000      2.000000
 -0.285714  0.047619  0.000000      2.000000
 -0.238095  0.047619  0.000000      2.000000
 -0.190476  0.047619  0.000000      2.000000
 -0.142857  0.047619  0.000000      2.000000
 -0.095238  0.047619  0.000000      2.000000
 -0.047619  0.047619  0.000000      2.000000
  0.000000  0.095238  0.000000      2.000000
  0.047619  0.095238  0.000000      2.000000
  0.095238  0.095238  0.000000      2.000000
  0.142857  0.095238  0.000000      2.000000
  0.190476  0.095238  0.000000      2.000000
  0.238095  0.095238  0.000000      2.000000
  0.285714  0.095238  0.000000      2.000000
  0.333333  0.095238  0.000000      2.000000
  0.380952  0.095238  0.000000      2.000000
  0.428571  0.095238  0.000000      2.000000
  0.476190  0.095238  0.000000      2.000000
 -0.476190  0.095238  0.000000      2.000000
 -0.428571  0.095238  0.000000      2.000000
 -0.380952  0.095238  0.000000      2.000000
 -0.333333  0.095238  0.000000      2.000000
 -0.285714  0.095238  0.000000      2.000000
 -0.238095  0.095238  0.000000      2.000000
 -0.190476  0.095238  0.000000      2.000000
 -0.142857  0.095238  0.000000      2.000000
 -0.095238  0.095238  0.000000      2.000000
 -0.047619  0.095238  0.000000      2.000000
  0.000000  0.142857  0.000000      2.000000
  0.047619  0.142857  0.000000      2.000000
  0.095238  0.142857  0.000000      2.000000
  0.142857  0.142857  0.000000      2.000000
  0.190476  0.142857  0.000000      2.000000
  0.238095  0.142857  0.000000      2.000000
  0.285714  0.142857  0.000000      2.000000
[...]
  0.285714  0.476190  0.000000      2.000000
  0.333333  0.476190  0.000000      2.000000
  0.380952  0.476190  0.000000      2.000000
  0.428571  0.476190  0.000000      2.000000
  0.476190  0.476190  0.000000      2.000000
 -0.476190  0.476190  0.000000      2.000000
 -0.428571  0.476190  0.000000      2.000000
 -0.380952  0.476190  0.000000      2.000000
 -0.333333  0.476190  0.000000      2.000000
 -0.285714  0.476190  0.000000      2.000000
 -0.238095  0.476190  0.000000      2.000000
 -0.190476  0.476190  0.000000      2.000000
 -0.142857  0.476190  0.000000      2.000000
 -0.095238  0.476190  0.000000      2.000000
 -0.047619  0.476190  0.000000      2.000000

 Following cartesian coordinates:
            Coordinates               Weight
  0.000000  0.000000  0.000000      1.000000
  0.022705  0.013109  0.000000      2.000000
  0.045411  0.026217  0.000000      2.000000
  0.068116  0.039326  0.000000      2.000000
  0.090821  0.052434  0.000000      2.000000
  0.113526  0.065543  0.000000      2.000000
  0.136232  0.078651  0.000000      2.000000
  0.158937  0.091760  0.000000      2.000000
  0.181642  0.104868  0.000000      2.000000
  0.204347  0.117977  0.000000      2.000000
  0.227053  0.131085  0.000000      2.000000
  0.000000  0.026218  0.000000      2.000000
  0.022705  0.039326  0.000000      2.000000
  0.045411  0.052435  0.000000      2.000000
  0.068116  0.065543  0.000000      2.000000
  0.090821  0.078652  0.000000      2.000000
  0.113526  0.091760  0.000000      2.000000
  0.136232  0.104869  0.000000      2.000000
  0.158937  0.117977  0.000000      2.000000
  0.181642  0.131086  0.000000      2.000000
  0.204347  0.144194  0.000000      2.000000
  0.227053  0.157303  0.000000      2.000000
 -0.227053 -0.104867  0.000000      2.000000
 -0.204347 -0.091759  0.000000      2.000000
 -0.181642 -0.078650  0.000000      2.000000
 -0.158937 -0.065542  0.000000      2.000000
 -0.136232 -0.052433  0.000000      2.000000
 -0.113526 -0.039325  0.000000      2.000000
 -0.090821 -0.026216  0.000000      2.000000
 -0.068116 -0.013108  0.000000      2.000000
 -0.045411  0.000001  0.000000      2.000000
 -0.022705  0.013109  0.000000      2.000000
  0.000000  0.052435  0.000000      2.000000
  0.022705  0.065544  0.000000      2.000000
  0.045411  0.078652  0.000000      2.000000
  0.068116  0.091761  0.000000      2.000000
  0.090821  0.104869  0.000000      2.000000
  0.113526  0.117978  0.000000      2.000000
  0.136232  0.131086  0.000000      2.000000
  0.158937  0.144195  0.000000      2.000000
  0.181642  0.157303  0.000000      2.000000
  0.204347  0.170412  0.000000      2.000000
  0.227053  0.183520  0.000000      2.000000
 -0.227053 -0.078650  0.000000      2.000000
 -0.204347 -0.065541  0.000000      2.000000
 -0.181642 -0.052433  0.000000      2.000000
 -0.158937 -0.039324  0.000000      2.000000
 -0.136232 -0.026216  0.000000      2.000000
 -0.113526 -0.013107  0.000000      2.000000
 -0.090821  0.000001  0.000000      2.000000
 -0.068116  0.013110  0.000000      2.000000
 -0.045411  0.026218  0.000000      2.000000
 -0.022705  0.039327  0.000000      2.000000
  0.000000  0.078653  0.000000      2.000000
  0.022705  0.091761  0.000000      2.000000
  0.045411  0.104870  0.000000      2.000000
  0.068116  0.117978  0.000000      2.000000
  0.090821  0.131087  0.000000      2.000000
  0.113526  0.144195  0.000000      2.000000
  0.136232  0.157304  0.000000      2.000000
[...]
  0.136232  0.340828  0.000000      2.000000
  0.158937  0.353936  0.000000      2.000000
  0.181642  0.367045  0.000000      2.000000
  0.204347  0.380153  0.000000      2.000000
  0.227053  0.393262  0.000000      2.000000
 -0.227053  0.131091  0.000000      2.000000
 -0.204347  0.144200  0.000000      2.000000
 -0.181642  0.157308  0.000000      2.000000
 -0.158937  0.170417  0.000000      2.000000
[...]
   0.38095238 -0.00000000  0.00000000       0.005
   0.42857143 -0.00000000  0.00000000       0.005
   0.47619048 -0.00000000  0.00000000       0.005
   0.00000000  0.04761905  0.00000000       0.005
   0.04761905  0.04761905  0.00000000       0.005
   0.09523810  0.04761905  0.00000000       0.005
   0.14285714  0.04761905  0.00000000       0.005
   0.19047619  0.04761905  0.00000000       0.005
   0.23809524  0.04761905  0.00000000       0.005
   0.28571429  0.04761905  0.00000000       0.005
   0.33333333  0.04761905  0.00000000       0.005
   0.38095238  0.04761905  0.00000000       0.005
   0.42857143  0.04761905  0.00000000       0.005
   0.47619048  0.04761905  0.00000000       0.005
  -0.47619048  0.04761905  0.00000000       0.005
  -0.42857143  0.04761905  0.00000000       0.005
  -0.38095238  0.04761905  0.00000000       0.005
  -0.33333333  0.04761905  0.00000000       0.005
  -0.28571429  0.04761905  0.00000000       0.005
  -0.23809524  0.04761905  0.00000000       0.005
  -0.19047619  0.04761905  0.00000000       0.005
  -0.14285714  0.04761905  0.00000000       0.005
  -0.09523810  0.04761905  0.00000000       0.005
  -0.04761905  0.04761905  0.00000000       0.005
   0.00000000  0.09523810  0.00000000       0.005
   0.04761905  0.09523810  0.00000000       0.005
   0.09523810  0.09523810  0.00000000       0.005
   0.14285714  0.09523810  0.00000000       0.005
   0.19047619  0.09523810  0.00000000       0.005
   0.23809524  0.09523810  0.00000000       0.005
   0.28571429  0.09523810  0.00000000       0.005
   0.33333333  0.09523810  0.00000000       0.005
   0.38095238  0.09523810  0.00000000       0.005
   0.42857143  0.09523810  0.00000000       0.005
   0.47619048  0.09523810  0.00000000       0.005
  -0.47619048  0.09523810  0.00000000       0.005
  -0.42857143  0.09523810  0.00000000       0.005
  -0.38095238  0.09523810  0.00000000       0.005
  -0.33333333  0.09523810  0.00000000       0.005
  -0.28571429  0.09523810  0.00000000       0.005
  -0.23809524  0.09523810  0.00000000       0.005
  -0.19047619  0.09523810  0.00000000       0.005
  -0.14285714  0.09523810  0.00000000       0.005
  -0.09523810  0.09523810  0.00000000       0.005
  -0.04761905  0.09523810  0.00000000       0.005
   0.00000000  0.14285714  0.00000000       0.005
   0.04761905  0.14285714  0.00000000       0.005
   0.09523810  0.14285714  0.00000000       0.005
   0.14285714  0.14285714  0.00000000       0.005
   0.19047619  0.14285714  0.00000000       0.005
   0.23809524  0.14285714  0.00000000       0.005
   0.28571429  0.14285714  0.00000000       0.005
[...]
   0.28571429  0.47619048  0.00000000       0.005
   0.33333333  0.47619048  0.00000000       0.005
   0.38095238  0.47619048  0.00000000       0.005
   0.42857143  0.47619048  0.00000000       0.005
   0.47619048  0.47619048  0.00000000       0.005
  -0.47619048  0.47619048  0.00000000       0.005
  -0.42857143  0.47619048  0.00000000       0.005
  -0.38095238  0.47619048  0.00000000       0.005
  -0.33333333  0.47619048  0.00000000       0.005
  -0.28571429  0.47619048  0.00000000       0.005
  -0.23809524  0.47619048  0.00000000       0.005
  -0.19047619  0.47619048  0.00000000       0.005
  -0.14285714  0.47619048  0.00000000       0.005
  -0.09523810  0.47619048  0.00000000       0.005
  -0.04761905  0.47619048  0.00000000       0.005

 position of ions in fractional coordinates (direct lattice)
   0.00000000  0.00000000  0.50000000
   0.66666885  0.33333464  0.50000000

 position of ions in cartesian coordinates  (Angst):
   0.00000000  0.00000000  7.50000000
   1.04864588  0.60543497  7.50000000

 k-point   1 :   0.0000 0.0000 0.0000  plane waves:    1495
 k-point   2 :   0.0476-0.0000 0.0000  plane waves:    1497
 k-point   3 :   0.0952-0.0000 0.0000  plane waves:    1501
 k-point   4 :   0.1429-0.0000 0.0000  plane waves:    1513
 k-point   5 :   0.1905-0.0000 0.0000  plane waves:    1515
 k-point   6 :   0.2381-0.0000 0.0000  plane waves:    1519
 k-point   7 :   0.2857-0.0000 0.0000  plane waves:    1531
 k-point   8 :   0.3333-0.0000 0.0000  plane waves:    1541
 k-point   9 :   0.3810-0.0000 0.0000  plane waves:    1540
 k-point  10 :   0.4286-0.0000 0.0000  plane waves:    1546
 k-point  11 :   0.4762-0.0000 0.0000  plane waves:    1552
 k-point  12 :   0.0000 0.0476 0.0000  plane waves:    1497
 k-point  13 :   0.0476 0.0476 0.0000  plane waves:    1497
 k-point  14 :   0.0952 0.0476 0.0000  plane waves:    1508
 k-point  15 :   0.1429 0.0476 0.0000  plane waves:    1515
 k-point  16 :   0.1905 0.0476 0.0000  plane waves:    1519
 k-point  17 :   0.2381 0.0476 0.0000  plane waves:    1531
 k-point  18 :   0.2857 0.0476 0.0000  plane waves:    1546
 k-point  19 :   0.3333 0.0476 0.0000  plane waves:    1544
 k-point  20 :   0.3810 0.0476 0.0000  plane waves:    1542
 k-point  21 :   0.4286 0.0476 0.0000  plane waves:    1552
 k-point  22 :   0.4762 0.0476 0.0000  plane waves:    1550
 k-point  23 :  -0.4762 0.0476 0.0000  plane waves:    1552
 k-point  24 :  -0.4286 0.0476 0.0000  plane waves:    1542
 k-point  25 :  -0.3810 0.0476 0.0000  plane waves:    1544
 k-point  26 :  -0.3333 0.0476 0.0000  plane waves:    1546
 k-point  27 :  -0.2857 0.0476 0.0000  plane waves:    1531
 k-point  28 :  -0.2381 0.0476 0.0000  plane waves:    1519
 k-point  29 :  -0.1905 0.0476 0.0000  plane waves:    1515
 k-point  30 :  -0.1429 0.0476 0.0000  plane waves:    1508
 k-point  31 :  -0.0952 0.0476 0.0000  plane waves:    1497
 k-point  32 :  -0.0476 0.0476 0.0000  plane waves:    1497
 k-point  33 :   0.0000 0.0952 0.0000  plane waves:    1501
 k-point  34 :   0.0476 0.0952 0.0000  plane waves:    1508
 k-point  35 :   0.0952 0.0952 0.0000  plane waves:    1504
 k-point  36 :   0.1429 0.0952 0.0000  plane waves:    1519
 k-point  37 :   0.1905 0.0952 0.0000  plane waves:    1522
 k-point  38 :   0.2381 0.0952 0.0000  plane waves:    1536
 k-point  39 :   0.2857 0.0952 0.0000  plane waves:    1542
 k-point  40 :   0.3333 0.0952 0.0000  plane waves:    1545
 k-point  41 :   0.3810 0.0952 0.0000  plane waves:    1545
 k-point  42 :   0.4286 0.0952 0.0000  plane waves:    1542
 k-point  43 :   0.4762 0.0952 0.0000  plane waves:    1542
 k-point  44 :  -0.4762 0.0952 0.0000  plane waves:    1545
 k-point  45 :  -0.4286 0.0952 0.0000  plane waves:    1545
 k-point  46 :  -0.3810 0.0952 0.0000  plane waves:    1542
 k-point  47 :  -0.3333 0.0952 0.0000  plane waves:    1536
 k-point  48 :  -0.2857 0.0952 0.0000  plane waves:    1522
 k-point  49 :  -0.2381 0.0952 0.0000  plane waves:    1519
 k-point  50 :  -0.1905 0.0952 0.0000  plane waves:    1504
 k-point  51 :  -0.1429 0.0952 0.0000  plane waves:    1508
 k-point  52 :  -0.0952 0.0952 0.0000  plane waves:    1501
 k-point  53 :  -0.0476 0.0952 0.0000  plane waves:    1497
 k-point  54 :   0.0000 0.1429 0.0000  plane waves:    1513
 k-point  55 :   0.0476 0.1429 0.0000  plane waves:    1515
 k-point  56 :   0.0952 0.1429 0.0000  plane waves:    1519
 k-point  57 :   0.1429 0.1429 0.0000  plane waves:    1530
 k-point  58 :   0.1905 0.1429 0.0000  plane waves:    1530
 k-point  59 :   0.2381 0.1429 0.0000  plane waves:    1553
 k-point  60 :   0.2857 0.1429 0.0000  plane waves:    1543
[...]
 k-point 207 :   0.2857 0.4762 0.0000  plane waves:    1554
 k-point 208 :   0.3333 0.4762 0.0000  plane waves:    1559
 k-point 209 :   0.3810 0.4762 0.0000  plane waves:    1546
 k-point 210 :   0.4286 0.4762 0.0000  plane waves:    1542
 k-point 211 :   0.4762 0.4762 0.0000  plane waves:    1550
 k-point 212 :  -0.4762 0.4762 0.0000  plane waves:    1552
 k-point 213 :  -0.4286 0.4762 0.0000  plane waves:    1552
 k-point 214 :  -0.3810 0.4762 0.0000  plane waves:    1545
 k-point 215 :  -0.3333 0.4762 0.0000  plane waves:    1546
 k-point 216 :  -0.2857 0.4762 0.0000  plane waves:    1549
 k-point 217 :  -0.2381 0.4762 0.0000  plane waves:    1552
 k-point 218 :  -0.1905 0.4762 0.0000  plane waves:    1549
 k-point 219 :  -0.1429 0.4762 0.0000  plane waves:    1546
 k-point 220 :  -0.0952 0.4762 0.0000  plane waves:    1545
 k-point 221 :  -0.0476 0.4762 0.0000  plane waves:    1552

 maximum and minimum number of plane-waves per node :       121       95

 maximum number of plane-waves:      1566
 maximum index in each direction:
   IXMAX=    4   IYMAX=    3   IZMAX=   27
   IXMIN=   -4   IYMIN=   -4   IZMIN=  -27

 parallel 3D FFT for wavefunctions:
    minimum data exchange during FFTs selected (reduces bandwidth)
 parallel 3D FFT for charge:
    minimum data exchange during FFTs selected (reduces bandwidth)

 Broyden mixing: mesh for mixing (old mesh)
   NGX =  7   NGY =  7   NGZ = 55
  (NGX  = 32   NGY  = 32   NGZ  =224)
  gives a total of   2695 points

 initial charge density was supplied:
 charge density of overlapping atoms calculated
 number of electron       8.0000000 magnetization
 keeping initial charge density in first step

 Maximum index for augmentation-charges         2650 (set IRDMAX)

 First call to EWALD:  gamma=   0.460
 Maximum number of real-space cells 5x 5x 1
 Maximum number of reciprocal cells 2x 2x 9

--------------------------------------- Iteration      1(   1)  ---------------------------------------

 eigenvalue-minimisations  :  4064
 total energy-change (2. order) : 0.4896954E+02  (-0.4461028E+03)
 number of electron       8.0000000 magnetization
 augmentation part        8.0000000 magnetization

 Free energy of the ion-electron system (eV)
  alpha Z        PSCENC =         5.75066106
  Ewald energy   TEWEN  =      1267.84883356
  -Hartree energ DENC   =     -1451.24626965
  -exchange      EXHF   =         0.00000000
  -V(xc)+E(xc)   XCENC  =        28.79054652
  PAW double counting   =       217.04409276     -218.18290438
  entropy T*S    EENTRO =        -0.00119084
  eigenvalues    EBANDS =       -95.33201544
  atomic energy  EATOM  =       294.29778662
  Solvation  Ediel_sol  =         0.00000000
  free energy    TOTEN  =        48.96954021 eV

  energy without entropy =       48.97073106  energy(sigma->0) =       48.97013564

[...]

 eigenvalue-minimisations  :  4624
 total energy-change (2. order) :-0.6476082E+02  (-0.5486385E+02)
 number of electron       8.0000000 magnetization
 augmentation part        8.0000000 magnetization

[...]

 Broyden mixing:
  rms(total) = 0.11114E+01    rms(broyden)= 0.11112E+01
  rms(prec ) = 0.12462E+01
  weight for this iteration     100.00

[...]

 eigenvalues of (default mixing * dielectric matrix)
  average eigenvalue GAMMA=   2.0759
  2.0759

[...]

 eigenvalue-minimisations  :  4408
 total energy-change (2. order) : 0.1240494E-01  (-0.1176559E-02)
 number of electron       8.0000000 magnetization
 augmentation part        0.2775782 magnetization

[...]

 Broyden mixing:
  rms(total) = 0.12681E-04    rms(broyden)= 0.12655E-04
  rms(prec ) = 0.13179E-04
  weight for this iteration     100.00

[...]

 Broyden mixing:
  rms(total) = 0.12654E-05    rms(broyden)= 0.97597E-06
  rms(prec ) = 0.11226E-05
  weight for this iteration     100.00
  WARNING: grid for Broyden might be to small

[...]

 Broyden mixing:
  rms(total) = 0.13286E-05    rms(broyden)= 0.10567E-05
  rms(prec ) = 0.11327E-05
  weight for this iteration     100.00
  WARNING: grid for Broyden might be to small

 eigenvalues of (default mixing * dielectric matrix)
  average eigenvalue GAMMA=   2.7304
  9.6745  5.8152  4.0146  3.1518  2.8951  2.5082  2.4575  2.0158  2.1745  1.2693
  1.0256  1.0256  0.9914  0.9914  0.9453

[...]

--------------------------------------- Iteration      1(  21)  ---------------------------------------

 eigenvalue-minimisations  :  3848
 total energy-change (2. order) :-0.4152071E-08  (-0.1943067E-11)
 number of electron       8.0000000 magnetization
 augmentation part        0.2774700 magnetization

 Free energy of the ion-electron system (eV)
  alpha Z        PSCENC =         5.75066106
  Ewald energy   TEWEN  =      1267.84883356
  -Hartree energ DENC   =     -1520.86876596
  -exchange      EXHF   =         0.00000000
  -V(xc)+E(xc)   XCENC  =        30.78337865
  PAW double counting   =      1805.86710649    -1807.59301258
  entropy T*S    EENTRO =        -0.00025587
  eigenvalues    EBANDS =       -89.92088460
  atomic energy  EATOM  =       294.29778662
  Solvation  Ediel_sol  =         0.00000000
  free energy    TOTEN  =       -13.83515261 eV

  energy without entropy =      -13.83489675  energy(sigma->0) =      -13.83502468

 average (electrostatic) potential at core
  the test charge radii are     0.6991
  (the norm of the test charge is              1.0000)
       1 -55.2768       2 -55.2767

 E-fermi :  -0.1685     XC(G=0):  -3.0533     alpha+bet : -3.5081

 Fermi energy:        -0.1684794959

 k-point     1 :       0.0000    0.0000    0.0000
  band No.  band energies     occupation
      1     -23.8707      2.00000
      2     -11.6679      2.00000
      3      -2.5809      2.00000
      4      -2.5808      2.00000
      5       1.2783      0.00000
      6       2.2435      0.00000
      7       2.7810      0.00000
      8       4.6102      0.00000

[...]

 k-point   221 :      -0.0476    0.4762    0.0000
  band No.  band energies     occupation
      1     -17.7961      2.00000
      2     -14.8859      2.00000
      3      -7.9727      2.00000
      4      -4.1212      2.00000
      5       2.2832      0.00000
      6      10.3612      0.00000
      7      11.5409      0.00000
      8      12.1070      0.00000

 soft charge-density along one line, spin component           1
         0         1         2         3         4         5         6         7         8         9
 total charge-density along one line

------------------------ aborting loop because EDIFF is reached ----------------------------------------

         DFTD3 V3.0 Rev 1
 IVDW         = 12
 DF pbe
 parameters
 VDW_S6       =    1.0000
 VDW_S8       =    0.7875
 VDW_A1       =    0.4289
 VDW_A2       =    4.4407
 k1-k3        =   16.0000    1.3333   -4.0000
 VDW_RADIUS   =   50.2022 A
 VDW_CNRADIUS =   21.1671 A
 Edisp (eV)   -0.18697

 E6    (eV) :    -0.1285
 E8    (eV) :    -0.0585
 % E8        : 31.29

  FORCE on cell =-STRESS in cart. coord.  units (eV):
  Direction    XX          YY          ZZ          XY          YZ          ZX
  Alpha Z     5.75066     5.75066     5.75066
  Ewald    1583.99224  1583.99283 -1900.13631    -0.00205     0.00000    -0.00000
  Hartree  1512.59541  1512.59539 -1504.32205    -0.00028     0.00000     0.00000
  E(xc)     -33.00904   -33.00904   -34.21252    -0.00000    -0.00000    -0.00000
  Local   -3172.81198 -3172.81237  3290.71167     0.00168    -0.00000    -0.00000
  n-local   -11.52148   -11.52136    -8.77771     0.00013    -0.00000     0.00000
  augment    -1.55039    -1.55038    -1.11988     0.00002    -0.00000    -0.00000
  Kinetic   148.18252   148.18178   152.08127    -0.00058     0.00000     0.00000
  Fock        0.00000     0.00000     0.00000     0.00000     0.00000     0.00000
  vdW        -0.19621    -0.19621    -0.00155     0.00000    -0.00000     0.00000
  Total      31.43173    31.43130    -0.02642    -0.00108    -0.00000    -0.00000
  in kB     881.34587   881.33402    -0.74081    -0.03033    -0.00000    -0.00000

 VOLUME and BASIS-vectors are now :
  energy-cutoff  :      520.00
  volume of cell :       57.14
      direct lattice vectors                 reciprocal lattice vectors
     2.097268878  0.000000000  0.000000000     0.476810585  0.275278764  0.000000000
    -1.048609716  1.816297792  0.000000000     0.000000000  0.550570509  0.000000000
     0.000000000  0.000000000 15.000000000     0.000000000  0.000000000  0.066666667

  length of vectors
     2.097268878  2.097264887 15.000000000     0.550569461  0.550570509  0.066666667

 FORCES acting on ions
    electron-ion (+dipol)            ewald-force                    non-local-force                 convergence-correction
   -.395E-02 0.857E-03 0.160E-06   0.505E-02 -.929E-03 0.257E-20   0.145E-03 0.930E-04 0.271E-07   -.315E-06 0.221E-06 -.158E-06
   0.395E-02 -.857E-03 0.147E-06   -.505E-02 0.929E-03 -.263E-20   -.145E-03 -.930E-04 0.112E-07   0.419E-06 -.261E-06 -.143E-06
   -.138E-06 0.577E-07 0.306E-06   0.912E-15 0.249E-14 -.588E-22   0.982E-08 -.130E-08 0.384E-07   0.104E-06 -.394E-07 -.301E-06

 POSITION                                       TOTAL-FORCE (eV/Angst)
      0.00000      0.00000      7.50000         0.001253      0.000021      0.000000
      1.04865      0.60543      7.50000        -0.001253     -0.000021     -0.000000
    total drift:                               -0.000000      0.000000      0.000000

  FREE ENERGIE OF THE ION-ELECTRON SYSTEM (eV)
  free  energy   TOTEN  =       -14.02211868 eV

  energy  without entropy=      -14.02186281  energy(sigma->0) =      -14.02199074