 vasp.6.3.1 04May22 (build Aug 04 2022 13:02:54) complex

 executed on             LinuxIFC date 2024.11.25  05:17:38

 INCAR:
   ISTART = 1            (Read existing wavefunction
   ISPIN = 1            (Non-Spin polarised DFT)
   LREAL = .FALSE.       (Projection operators: automatic)
   ENCUT = 520        (Cut-off energy for plane wave basis set, in eV)
   PREC = A       (Precision level)
   LWAVE = .FALSE.        (Write WAVECAR or not)
   LCHARG = .FALSE.        (Write CHGCAR or not)
   ADDGRID = .TRUE.        (Increase grid
   KSPACING = 0.2000
   KGAMMA = .FALSE.
   IVDW = 12
   ISMEAR = 0            (Gaussian smearing
   SIGMA = 0.05         (Smearing value in eV
   NELM = 200           (Max electronic SCF steps)
   NELMIN = 6            (Min electronic SCF steps)
   EDIFF = 1E-08        (SCF energy convergence
   NSW = 0          (Max ionic steps)
   IBRION = -1            (Algorithm: 0-MD
   ISIF = 3           (Stress/relaxation: 2-Ions, 3-Shape/Ions/V, 4-Shape/Ions)
   EDIFFG = -1E-04        (Ionic convergence
   NCORE = 14

 POTCAR:    PAW_PBE C 08Apr2002
|           W    W    AA    RRRRR   N    N  II  N    N   GGGG   !!!           |
|           W    W   A  A   R    R  NN   N  II  NN   N  G    G  !!!           |
|           W    W  A    A  R    R  N N  N  II  N N  N  G       !!!           |
|           W WW W  AAAAAA  RRRRR   N  N N  II  N  N N  G  GGG   !            |
|           WW  WW  A    A  R   R   N   NN  II  N   NN  G    G                |
|           W    W  A    A  R    R  N    N  II  N    N   GGGG   !!!           |
|     For optimal performance we recommend to set                             |
|       NCORE = 2 up to number-of-cores-per-socket                            |
|     This setting can greatly improve the performance of VASP for DFT.       |
|     The default, NCORE=1 might be grossly inefficient on modern             |
|     multi-core architectures or massively parallel machines. Do your        |
|     Unfortunately you need to use the default for GW and RPA                |
|     calculations (for HF NCORE is supported but not extensively tested      |
|     yet).                                                                   |

 POTCAR:    PAW_PBE C 08Apr2002
   VRHFIN =C: s2p2

   TITEL  = PAW_PBE C 08Apr2002
   POMASS =   12.011; ZVAL   =    4.000    mass and valenz
   ENMAX  =  400.000; ENMIN  =  300.000 eV

  PAW_PBE C 08Apr2002                   :

 POSCAR: AB-stacked Graphene
  positions in direct lattice
  velocities in cartesian coordinates
 exchange correlation table for  LEXCH =        8
   RHO(1)=    0.500       N(1)  =     2000
   RHO(2)=  100.500       N(2)  =     4000

 ion  position               nearest neighbor table
   1  0.118  0.998  1.000-   2 1.42   2 1.42   2 1.42
   2  0.784  0.332  0.000-   1 1.42   1 1.42   1 1.42
   3  0.465  0.668  0.500-   4 1.42   4 1.42   4 1.42
   4  0.132  0.002  0.500-   3 1.42   3 1.42   3 1.42

  Warning from LATTYP: Monoclinic adjustment (A1->A3, A2->A1, A3->A2)!
  LATTYP: Found a base centered orthorhombic cell.
 ALAT       =     2.4664926102
 B/A-ratio  =     1.7321284541
 C/A-ratio  =     2.2704304796

  Lattice vectors:

 A1 = (   1.2335791197,   2.1359430323,  -0.0000000552)
 A2 = (  -2.4665805555,   0.0002435830,   0.0000000494)
 A3 = (  -0.0000000441,  -0.0000001059,   5.6000000000)

Analysis of symmetry for initial positions (statically):
 Subroutine PRICEL returns:
 Original cell was already a primitive cell.

 Routine SETGRP: Setting up the symmetry group for a
 base centered orthorhombic supercell.

 Subroutine GETGRP returns: Found  4 space group operations
 (whereof  2 operations were pure point group operations)
 out of a pool of  8 trial point group operations.

The static configuration has the point symmetry C_1h.
 The point group associated with its full space group is C_2h.

Analysis of symmetry for dynamics (positions and initial velocities):
 Subroutine PRICEL returns:
 Original cell was already a primitive cell.

 Routine SETGRP: Setting up the symmetry group for a
 base centered orthorhombic supercell.

 Subroutine GETGRP returns: Found  4 space group operations
 (whereof  2 operations were pure point group operations)
 out of a pool of  8 trial point group operations.

The dynamic configuration has the point symmetry C_1h.
 The point group associated with its full space group is C_2h.

 Subroutine INISYM returns: Found  4 space group operations
 (whereof  2 operations are pure point group operations),
 and found     1 'primitive' translations

                                     Primitive cell

  volume of cell :      29.5051

  direct lattice vectors                    reciprocal lattice vectors
     2.466580556 -0.000243583 -0.000000049     0.405442669  0.234020469  0.000000008
    -1.233001436  2.136186615 -0.000000006     0.000046231  0.468150580  0.000000009
    -0.000000044 -0.000000106  5.600000000     0.000000004  0.000000003  0.178571429

  length of vectors
     2.466580568  2.466492610  5.600000000     0.468133888  0.468150582  0.178571429

  position of ions in fractional coordinates (direct lattice)
     0.117794189  0.998254412  0.999999659
     0.784453271  0.331580559  0.000000223
     0.465038818  0.668419402  0.499999796
     0.131697875  0.001745627  0.500000322

  ion indices of the primitive-cell ions
   primitive index   ion index
                 1           1
                 2           2
                 3           3
                 4           4

 KPOINTS: K-Spacing Value to Generate K-Mesh: 0.03

Automatic generation of k-mesh.
 Grid dimensions read from file:
 generate k-points for:   18   18    6

 Generating k-lattice:

  Cartesian coordinates                     Fractional coordinates (reciprocal lattice)
     0.022524593  0.013001137  0.000000000     0.055555556 -0.000000000 -0.000000000
     0.000002568  0.026008366  0.000000000     0.000000000  0.055555556  0.000000000
     0.000000001  0.000000000  0.029761905    -0.000000000 -0.000000000  0.166666667

  Length of vectors
     0.026007438  0.026008366  0.029761905

  Shift w.r.t. Gamma in fractional coordinates (k-lattice)
     0.000000000  0.000000000  0.000000000

 Subroutine IBZKPT returns following result:

 Found    656 irreducible k-points:

 Following reciprocal coordinates:
            Coordinates               Weight
  0.000000  0.000000  0.000000      1.000000
  0.055556  0.000000  0.000000      2.000000
  0.111111  0.000000 -0.000000      2.000000
  0.166667  0.000000 -0.000000      2.000000
  0.222222  0.000000  0.000000      2.000000
  0.277778  0.000000  0.000000      2.000000
  0.333333  0.000000 -0.000000      2.000000
  0.388889  0.000000 -0.000000      2.000000
  0.444444  0.000000  0.000000      2.000000
  0.500000  0.000000  0.000000      1.000000
 -0.000000  0.055556 -0.000000      2.000000
 -0.055556  0.055556 -0.000000      2.000000
  0.055556  0.055556  0.000000      2.000000
 -0.111111  0.055556 -0.000000      2.000000
  0.111111  0.055556  0.000000      2.000000
 -0.166667  0.055556 -0.000000      2.000000
  0.166667  0.055556 -0.000000      2.000000
 -0.222222  0.055556 -0.000000      2.000000
  0.222222  0.055556  0.000000      2.000000
 -0.277778  0.055556 -0.000000      2.000000
  0.277778  0.055556  0.000000      2.000000
 -0.333333  0.055556 -0.000000      2.000000
  0.333333  0.055556 -0.000000      2.000000
 -0.388889  0.055556  0.000000      2.000000
  0.388889  0.055556 -0.000000      2.000000
 -0.444444  0.055556 -0.000000      2.000000
  0.444444  0.055556  0.000000      2.000000
  0.500000  0.055556 -0.000000      2.000000
 -0.000000  0.111111 -0.000000      2.000000
 -0.111111  0.111111  0.000000      2.000000
  0.055556  0.111111  0.000000      2.000000
 -0.166667  0.111111  0.000000      2.000000
  0.111111  0.111111  0.000000      2.000000
 -0.222222  0.111111 -0.000000      2.000000
  0.166667  0.111111 -0.000000      2.000000
 -0.277778  0.111111  0.000000      2.000000
  0.222222  0.111111 -0.000000      2.000000
 -0.333333  0.111111  0.000000      2.000000
  0.277778  0.111111  0.000000      2.000000
 -0.388889  0.111111 -0.000000      2.000000
  0.333333  0.111111 -0.000000      2.000000
 -0.444444  0.111111  0.000000      2.000000
  0.388889  0.111111 -0.000000      2.000000
  0.500000  0.111111  0.000000      2.000000
  0.444444  0.111111  0.000000      2.000000
 -0.055556  0.111111 -0.000000      2.000000
 -0.000000  0.166667 -0.000000      2.000000
 -0.166667  0.166667 -0.000000      2.000000
  0.055556  0.166667  0.000000      2.000000
 -0.222222  0.166667 -0.000000      2.000000
  0.111111  0.166667  0.000000      2.000000
 -0.277778  0.166667 -0.000000      2.000000
  0.166667  0.166667 -0.000000      2.000000
 -0.333333  0.166667  0.000000      2.000000
  0.222222  0.166667 -0.000000      2.000000
 -0.388889  0.166667 -0.000000      2.000000
  0.277778  0.166667  0.000000      2.000000
 -0.444444  0.166667 -0.000000      2.000000
  0.333333  0.166667  0.000000      2.000000
  0.500000  0.166667 -0.000000      2.000000
[...]
 -0.333333  0.444444  0.500000      2.000000
 -0.111111  0.444444  0.500000      2.000000
 -0.277778  0.444444  0.500000      2.000000
 -0.166667  0.444444  0.500000      2.000000
 -0.222222  0.444444  0.500000      2.000000
 -0.000000  0.500000  0.500000      1.000000
  0.500000  0.500000  0.500000      1.000000
  0.055556  0.500000  0.500000      2.000000
  0.444444  0.500000  0.500000      2.000000
  0.111111  0.500000  0.500000      2.000000
  0.388889  0.500000  0.500000      2.000000
  0.166667  0.500000  0.500000      2.000000
  0.333333  0.500000  0.500000      2.000000
  0.222222  0.500000  0.500000      2.000000
  0.277778  0.500000  0.500000      2.000000

 Following cartesian coordinates:
            Coordinates               Weight
  0.000000  0.000000  0.000000      1.000000
  0.022525  0.013001  0.000000      2.000000
  0.045049  0.026002  0.000000      2.000000
  0.067574  0.039003  0.000000      2.000000
  0.090098  0.052005  0.000000      2.000000
  0.112623  0.065006  0.000000      2.000000
  0.135148  0.078007  0.000000      2.000000
  0.157672  0.091008  0.000000      2.000000
  0.180197  0.104009  0.000000      2.000000
  0.202721  0.117010  0.000000      1.000000
  0.000003  0.026008  0.000000      2.000000
 -0.022522  0.013007  0.000000      2.000000
  0.022527  0.039010  0.000000      2.000000
 -0.045047  0.000006 -0.000000      2.000000
  0.045052  0.052011  0.000000      2.000000
 -0.067571 -0.012995 -0.000000      2.000000
  0.067576  0.065012  0.000000      2.000000
 -0.090096 -0.025996 -0.000000      2.000000
  0.090101  0.078013  0.000000      2.000000
 -0.112620 -0.038997 -0.000000      2.000000
  0.112626  0.091014  0.000000      2.000000
 -0.135145 -0.051998 -0.000000      2.000000
  0.135150  0.104015  0.000000      2.000000
 -0.157670 -0.065000 -0.000000      2.000000
  0.157675  0.117016  0.000000      2.000000
 -0.180194 -0.078001 -0.000000      2.000000
  0.180199  0.130017  0.000000      2.000000
  0.202724  0.143019  0.000000      2.000000
  0.000005  0.052017  0.000000      2.000000
 -0.045044  0.026014  0.000000      2.000000
[...]
  -0.33333333  0.05555556 -0.00000000       0.001
   0.33333333  0.05555556 -0.00000000       0.001
  -0.38888889  0.05555556  0.00000000       0.001
   0.38888889  0.05555556 -0.00000000       0.001
  -0.44444444  0.05555556 -0.00000000       0.001
   0.44444444  0.05555556  0.00000000       0.001
   0.50000000  0.05555556 -0.00000000       0.001
  -0.00000000  0.11111111 -0.00000000       0.001
  -0.11111111  0.11111111  0.00000000       0.001
   0.05555556  0.11111111  0.00000000       0.001
  -0.16666667  0.11111111  0.00000000       0.001
   0.11111111  0.11111111  0.00000000       0.001
  -0.22222222  0.11111111 -0.00000000       0.001
   0.16666667  0.11111111 -0.00000000       0.001
  -0.27777778  0.11111111  0.00000000       0.001
   0.22222222  0.11111111 -0.00000000       0.001
  -0.33333333  0.11111111  0.00000000       0.001
   0.27777778  0.11111111  0.00000000       0.001
  -0.38888889  0.11111111 -0.00000000       0.001
   0.33333333  0.11111111 -0.00000000       0.001
  -0.44444444  0.11111111  0.00000000       0.001
   0.38888889  0.11111111 -0.00000000       0.001
   0.50000000  0.11111111  0.00000000       0.001
   0.44444444  0.11111111  0.00000000       0.001
  -0.05555556  0.11111111 -0.00000000       0.001
  -0.00000000  0.16666667 -0.00000000       0.001
  -0.16666667  0.16666667 -0.00000000       0.001
   0.05555556  0.16666667  0.00000000       0.001
  -0.22222222  0.16666667 -0.00000000       0.001
   0.11111111  0.16666667  0.00000000       0.001
  -0.27777778  0.16666667 -0.00000000       0.001
   0.16666667  0.16666667 -0.00000000       0.001
  -0.33333333  0.16666667  0.00000000       0.001
   0.22222222  0.16666667 -0.00000000       0.001
  -0.38888889  0.16666667 -0.00000000       0.001
   0.27777778  0.16666667  0.00000000       0.001
  -0.44444444  0.16666667 -0.00000000       0.001
   0.33333333  0.16666667  0.00000000       0.001
   0.50000000  0.16666667 -0.00000000       0.001
[...]
  -0.33333333  0.44444444  0.50000000       0.001
  -0.11111111  0.44444444  0.50000000       0.001
  -0.27777778  0.44444444  0.50000000       0.001
  -0.16666667  0.44444444  0.50000000       0.001
  -0.22222222  0.44444444  0.50000000       0.001
  -0.00000000  0.50000000  0.50000000       0.001
   0.50000000  0.50000000  0.50000000       0.001
   0.05555556  0.50000000  0.50000000       0.001
   0.44444444  0.50000000  0.50000000       0.001
   0.11111111  0.50000000  0.50000000       0.001
   0.38888889  0.50000000  0.50000000       0.001
   0.16666667  0.50000000  0.50000000       0.001
   0.33333333  0.50000000  0.50000000       0.001
   0.22222222  0.50000000  0.50000000       0.001
   0.27777778  0.50000000  0.50000000       0.001

 position of ions in fractional coordinates (direct lattice)
   0.11779419  0.99825441  0.99999966
   0.78445327  0.33158056  0.00000022
   0.46503882  0.66841940  0.49999980
   0.13169788  0.00174563  0.50000032

 position of ions in cartesian coordinates  (Angst):
  -0.94030031  2.13242891  5.59999808
   1.52607788  0.70812687  0.00000121
   0.32289360  1.42775525  2.79999883
   0.32269103  0.00369685  2.80000180

 k-point   1 :   0.0000 0.0000 0.0000  plane waves:     795
 k-point   2 :   0.0556 0.0000 0.0000  plane waves:     800
 k-point   3 :   0.1111 0.0000-0.0000  plane waves:     804
 k-point   4 :   0.1667 0.0000-0.0000  plane waves:     816
 k-point   5 :   0.2222 0.0000 0.0000  plane waves:     814
 k-point   6 :   0.2778 0.0000 0.0000  plane waves:     808
 k-point   7 :   0.3333 0.0000-0.0000  plane waves:     798
 k-point   8 :   0.3889 0.0000-0.0000  plane waves:     784
 k-point   9 :   0.4444 0.0000 0.0000  plane waves:     786
 k-point  10 :   0.5000 0.0000 0.0000  plane waves:     780
 k-point  11 :  -0.0000 0.0556-0.0000  plane waves:     800
 k-point  12 :  -0.0556 0.0556-0.0000  plane waves:     800
 k-point  13 :   0.0556 0.0556 0.0000  plane waves:     795
 k-point  14 :  -0.1111 0.0556-0.0000  plane waves:     795
 k-point  15 :   0.1111 0.0556 0.0000  plane waves:     807
 k-point  16 :  -0.1667 0.0556-0.0000  plane waves:     807
 k-point  17 :   0.1667 0.0556-0.0000  plane waves:     810
 k-point  18 :  -0.2222 0.0556-0.0000  plane waves:     810
 k-point  19 :   0.2222 0.0556 0.0000  plane waves:     808
 k-point  20 :  -0.2778 0.0556-0.0000  plane waves:     808
 k-point  21 :   0.2778 0.0556 0.0000  plane waves:     802
 k-point  22 :  -0.3333 0.0556-0.0000  plane waves:     802
 k-point  23 :   0.3333 0.0556-0.0000  plane waves:     796
 k-point  24 :  -0.3889 0.0556 0.0000  plane waves:     796
 k-point  25 :   0.3889 0.0556-0.0000  plane waves:     787
 k-point  26 :  -0.4444 0.0556-0.0000  plane waves:     787
 k-point  27 :   0.4444 0.0556 0.0000  plane waves:     786
 k-point  28 :   0.5000 0.0556-0.0000  plane waves:     786
 k-point  29 :  -0.0000 0.1111-0.0000  plane waves:     804
 k-point  30 :  -0.1111 0.1111 0.0000  plane waves:     804
 k-point  31 :   0.0556 0.1111 0.0000  plane waves:     807
 k-point  32 :  -0.1667 0.1111 0.0000  plane waves:     807
 k-point  33 :   0.1111 0.1111 0.0000  plane waves:     811
 k-point  34 :  -0.2222 0.1111-0.0000  plane waves:     811
 k-point  35 :   0.1667 0.1111-0.0000  plane waves:     809
 k-point  36 :  -0.2778 0.1111 0.0000  plane waves:     809
 k-point  37 :   0.2222 0.1111-0.0000  plane waves:     806
 k-point  38 :  -0.3333 0.1111 0.0000  plane waves:     806
 k-point  39 :   0.2778 0.1111 0.0000  plane waves:     800
 k-point  40 :  -0.3889 0.1111-0.0000  plane waves:     800
 k-point  41 :   0.3333 0.1111-0.0000  plane waves:     790
 k-point  42 :  -0.4444 0.1111 0.0000  plane waves:     790
 k-point  43 :   0.3889 0.1111-0.0000  plane waves:     791
 k-point  44 :   0.5000 0.1111 0.0000  plane waves:     791
 k-point  45 :   0.4444 0.1111 0.0000  plane waves:     792
 k-point  46 :  -0.0556 0.1111-0.0000  plane waves:     795
 k-point  47 :  -0.0000 0.1667-0.0000  plane waves:     816
 k-point  48 :  -0.1667 0.1667-0.0000  plane waves:     816
 k-point  49 :   0.0556 0.1667 0.0000  plane waves:     810
 k-point  50 :  -0.2222 0.1667-0.0000  plane waves:     810
 k-point  51 :   0.1111 0.1667 0.0000  plane waves:     809
 k-point  52 :  -0.2778 0.1667-0.0000  plane waves:     809
 k-point  53 :   0.1667 0.1667-0.0000  plane waves:     797
 k-point  54 :  -0.3333 0.1667 0.0000  plane waves:     797
 k-point  55 :   0.2222 0.1667-0.0000  plane waves:     789
 k-point  56 :  -0.3889 0.1667-0.0000  plane waves:     789
 k-point  57 :   0.2778 0.1667 0.0000  plane waves:     790
 k-point  58 :  -0.4444 0.1667-0.0000  plane waves:     790
 k-point  59 :   0.3333 0.1667 0.0000  plane waves:     791
 k-point  60 :   0.5000 0.1667-0.0000  plane waves:     791
[...]
 k-point 642 :  -0.3333 0.4444 0.5000  plane waves:     790
 k-point 643 :  -0.1111 0.4444 0.5000  plane waves:     790
 k-point 644 :  -0.2778 0.4444 0.5000  plane waves:     792
 k-point 645 :  -0.1667 0.4444 0.5000  plane waves:     792
 k-point 646 :  -0.2222 0.4444 0.5000  plane waves:     794
 k-point 647 :  -0.0000 0.5000 0.5000  plane waves:     788
 k-point 648 :   0.5000 0.5000 0.5000  plane waves:     788
 k-point 649 :   0.0556 0.5000 0.5000  plane waves:     796
 k-point 650 :   0.4444 0.5000 0.5000  plane waves:     796
 k-point 651 :   0.1111 0.5000 0.5000  plane waves:     790
 k-point 652 :   0.3889 0.5000 0.5000  plane waves:     790
 k-point 653 :   0.1667 0.5000 0.5000  plane waves:     788
 k-point 654 :   0.3333 0.5000 0.5000  plane waves:     788
 k-point 655 :   0.2222 0.5000 0.5000  plane waves:     794
 k-point 656 :   0.2778 0.5000 0.5000  plane waves:     794

 maximum and minimum number of plane-waves per node :        68       45

 maximum number of plane-waves:       816
 maximum index in each direction:
   IXMAX=    5   IYMAX=    4   IZMAX=   10
   IXMIN=   -5   IYMIN=   -5   IZMIN=  -10

 parallel 3D FFT for wavefunctions:
    minimum data exchange during FFTs selected (reduces bandwidth)
 parallel 3D FFT for charge:
    minimum data exchange during FFTs selected (reduces bandwidth)

 Broyden mixing: mesh for mixing (old mesh)
   NGX =  9   NGY =  9   NGZ = 21
  (NGX  = 36   NGY  = 36   NGZ  = 84)
  gives a total of   1701 points

 initial charge density was supplied:
 charge density of overlapping atoms calculated
 number of electron      16.0000000 magnetization
 keeping initial charge density in first step

 Maximum index for augmentation-charges         2095 (set IRDMAX)

 First call to EWALD:  gamma=   0.574
 Maximum number of real-space cells 4x 4x 2
 Maximum number of reciprocal cells 2x 2x 5

--------------------------------------- Iteration      1(   1)  ---------------------------------------

 eigenvalue-minimisations  : 15752
 total energy-change (2. order) : 0.3434602E+02  (-0.8054113E+03)
 number of electron      16.0000000 magnetization
 augmentation part       16.0000000 magnetization

 Free energy of the ion-electron system (eV)
  alpha Z        PSCENC =        44.54638070
  Ewald energy   TEWEN  =      -562.52190274
  -Hartree energ DENC   =       -88.79405535
  -exchange      EXHF   =         0.00000000
  -V(xc)+E(xc)   XCENC  =        53.47469243
  PAW double counting   =       434.08818552     -436.36580876
  entropy T*S    EENTRO =        -0.00051233
  eigenvalues    EBANDS =         1.32346262
  atomic energy  EATOM  =       588.59557325
  Solvation  Ediel_sol  =         0.00000000
  free energy    TOTEN  =        34.34601535 eV

  energy without entropy =       34.34652768  energy(sigma->0) =       34.34627151

[...]

 eigenvalue-minimisations  : 21292
 total energy-change (2. order) :-0.7023769E+02  (-0.6502305E+02)
 number of electron      16.0000000 magnetization
 augmentation part       16.0000000 magnetization

[...]

 Broyden mixing:
  rms(total) = 0.89090E+00    rms(broyden)= 0.89079E+00
  rms(prec ) = 0.14406E+01
  weight for this iteration     100.00

[...]

 eigenvalues of (default mixing * dielectric matrix)
  average eigenvalue GAMMA=   2.2025
  2.2025

[...]

 Broyden mixing:
  rms(total) = 0.69162E-05    rms(broyden)= 0.67283E-05
  rms(prec ) = 0.78600E-05
  weight for this iteration     100.00

[...]

 eigenvalue-minimisations  : 11200
 total energy-change (2. order) :-0.1250532E-07  (-0.1705956E-10)
 number of electron      16.0000000 magnetization
 augmentation part        0.3846990 magnetization

 Broyden mixing:
  rms(total) = 0.24250E-05    rms(broyden)= 0.18221E-05
  rms(prec ) = 0.22087E-05
  weight for this iteration     100.00
  WARNING: grid for Broyden might be to small

 eigenvalues of (default mixing * dielectric matrix)
  average eigenvalue GAMMA=   1.7798
  2.9725  2.7402  2.4771  2.4396  1.9472  1.0119  0.9870  0.9870  1.1179  1.1179

[...]

--------------------------------------- Iteration      1(  16)  ---------------------------------------

 eigenvalue-minimisations  : 10604
 total energy-change (2. order) : 0.5722995E-09  (-0.3302264E-11)
 number of electron      16.0000000 magnetization
 augmentation part        0.3846990 magnetization

 Free energy of the ion-electron system (eV)
  alpha Z        PSCENC =        44.54638070
  Ewald energy   TEWEN  =      -562.52190274
  -Hartree energ DENC   =      -116.97478451
  -exchange      EXHF   =         0.00000000
  -V(xc)+E(xc)   XCENC  =        55.50976744
  PAW double counting   =      1677.33429212    -1680.07569439
  entropy T*S    EENTRO =        -0.00016129
  eigenvalues    EBANDS =       -42.87795149
  atomic energy  EATOM  =       588.59557325
  Solvation  Ediel_sol  =         0.00000000
  free energy    TOTEN  =       -36.46448091 eV

  energy without entropy =      -36.46431962  energy(sigma->0) =      -36.46440026

 average (electrostatic) potential at core
  the test charge radii are     0.6991
  (the norm of the test charge is              1.0000)
       1 -48.9978       2 -48.8554       3 -48.8554       4 -48.9978

 E-fermi :   6.3401     XC(G=0): -11.5580     alpha+bet :-13.5872

 Fermi energy:         6.3400885510

 k-point     1 :       0.0000    0.0000    0.0000
  band No.  band energies     occupation
      1     -13.5890      2.00000
      2     -12.5327      2.00000
      3      -3.0992      2.00000
      4       1.3753      2.00000
      5       3.3941      2.00000
      6       3.4024      2.00000
      7       3.4967      2.00000
      8       3.5042      2.00000
      9      13.0270      0.00000
     10      14.6613      0.00000
     11      14.6785      0.00000
     12      14.8781      0.00000

[...]

 k-point   656 :       0.2778    0.5000    0.5000
  band No.  band energies     occupation
      1      -8.7882      2.00000
      2      -8.7882      2.00000
      3      -4.2208      2.00000
      4      -4.2208      2.00000
      5      -2.3427      2.00000
      6      -2.3427      2.00000
      7       3.6994      2.00000
      8       3.6994      2.00000
      9       9.1348      0.00000
     10       9.1348      0.00000
     11      17.3092      0.00000
     12      17.3092      0.00000

 soft charge-density along one line, spin component           1
         0         1         2         3         4         5         6         7         8         9
 total charge-density along one line

------------------------ aborting loop because EDIFF is reached ----------------------------------------

         DFTD3 V3.0 Rev 1
 IVDW         = 12
 DF pbe
 parameters
 VDW_S6       =    1.0000
 VDW_S8       =    0.7875
 VDW_A1       =    0.4289
 VDW_A2       =    4.4407
 k1-k3        =   16.0000    1.3333   -4.0000
 VDW_RADIUS   =   50.2022 A
 VDW_CNRADIUS =   21.1671 A
 Edisp (eV)   -0.76078

 E6    (eV) :    -0.5412
 E8    (eV) :    -0.2196
 % E8        : 28.86

  FORCE on cell =-STRESS in cart. coord.  units (eV):
  Direction    XX          YY          ZZ          XY          YZ          ZX
  Alpha Z    44.54638    44.54638    44.54638
  Ewald     -24.20923   -24.24042  -514.07292     0.05148    -0.00001    -0.00001
  Hartree    94.62179    94.60807   -72.25507     0.02764    -0.00000    -0.00000
  E(xc)     -59.81816   -59.81828   -61.45235     0.00015    -0.00000    -0.00000
  Local    -280.14251  -280.09846   343.80028    -0.08006     0.00001     0.00002
  n-local   -14.15307   -14.15419   -13.30519     0.00112     0.02244     0.03851
  augment    -1.56367    -1.56361    -1.43952     0.00002    -0.00000    -0.00000
  Kinetic   240.59833   240.59850   278.17283     0.01029    -0.25529    -0.44576
  Fock        0.00000     0.00000     0.00000     0.00000     0.00000     0.00000
  vdW         0.00511     0.00514    -0.68987     0.00009    -0.00000    -0.00000
  Total      -0.11503    -0.11687     3.30457     0.01073    -0.00000    -0.00000
  in kB      -6.24609    -6.34643   179.44355     0.58252    -0.00000    -0.00000

 VOLUME and BASIS-vectors are now :
  energy-cutoff  :      520.00
  volume of cell :       29.51
      direct lattice vectors                 reciprocal lattice vectors
     2.466580556 -0.000243583 -0.000000049     0.405442669  0.234020469  0.000000008
    -1.233001436  2.136186615 -0.000000006     0.000046231  0.468150580  0.000000009
    -0.000000044 -0.000000106  5.600000000     0.000000004  0.000000003  0.178571429

  length of vectors
     2.466580568  2.466492610  5.600000000     0.468133888  0.468150582  0.178571429

 FORCES acting on ions
    electron-ion (+dipol)            ewald-force                    non-local-force                 convergence-correction
   0.173E-01 0.208E-02 0.496E-03   -.130E-01 -.113E-02 -.365E-03   -.216E-02 -.633E-03 0.523E-10   -.102E-06 -.968E-07 -.485E-06
   -.307E-01 -.554E-02 -.115E-02   0.320E-01 0.644E-02 0.636E-03   0.650E-02 0.177E-02 -.155E-09   -.660E-07 0.215E-06 -.485E-06
   0.306E-01 0.603E-02 0.111E-03   -.320E-01 -.641E-02 -.601E-03   -.650E-02 -.177E-02 0.155E-09   0.660E-07 -.215E-06 0.485E-06
   -.174E-01 -.175E-02 -.141E-02   0.130E-01 0.110E-02 0.331E-03   0.216E-02 0.633E-03 -.523E-10   0.102E-06 0.968E-07 0.485E-06
   -.107E-03 0.820E-03 -.196E-02   0.166E-14 -.207E-14 0.867E-18   -.434E-18 0.217E-18 -.139E-17   0.238E-11 -.147E-10 0.209E-09

 POSITION                                       TOTAL-FORCE (eV/Angst)
     -0.94030      2.13243      5.60000         0.002064      0.000140     -0.000000
      1.52608      0.70813      0.00000         0.007958      0.002441     -0.000000
      0.32289      1.42776      2.80000        -0.007958     -0.002441      0.000000
      0.32269      0.00370      2.80000        -0.002064     -0.000140      0.000000
    total drift:                               -0.000107      0.000820     -0.001957

  FREE ENERGIE OF THE ION-ELECTRON SYSTEM (eV)
  free  energy   TOTEN  =       -37.22526494 eV

  energy  without entropy=      -37.22510365  energy(sigma->0) =      -37.22518429